\ Model RECTANGLE_Quasi_Diff_MILP
\ LP format - for model browsing. Use MPS format to capture full model detail.
Minimize
 
Subject To
 R0: m[0,0,0] = 0
 R1: m[0,0,1] = 0
 R2: m[0,0,2] = 0
 R3: m[0,0,3] = 0
 R4: m[0,0,4] = 0
 R5: m[0,0,5] = 0
 R6: m[0,0,6] = 0
 R7: m[0,0,7] = 0
 R8: m[0,0,8] = 0
 R9: m[0,0,9] = 0
 R10: m[0,0,10] = 0
 R11: m[0,0,11] = 0
 R12: m[0,0,12] = 0
 R13: m[0,0,13] = 0
 R14: m[0,0,14] = 0
 R15: m[0,0,15] = 0
 R16: m[0,0,16] = 0
 R17: m[0,0,17] = 0
 R18: m[0,0,18] = 0
 R19: m[0,0,19] = 0
 R20: m[0,0,20] = 0
 R21: m[0,0,21] = 0
 R22: m[0,0,22] = 0
 R23: m[0,0,23] = 0
 R24: m[0,0,24] = 0
 R25: m[0,0,25] = 0
 R26: m[0,0,26] = 0
 R27: m[0,0,27] = 0
 R28: m[0,0,28] = 0
 R29: m[0,0,29] = 0
 R30: m[0,0,30] = 0
 R31: m[0,0,31] = 0
 R32: m[0,0,32] = 0
 R33: m[0,0,33] = 0
 R34: m[0,0,34] = 0
 R35: m[0,0,35] = 0
 R36: m[0,0,36] = 0
 R37: m[0,0,37] = 0
 R38: m[0,0,38] = 0
 R39: m[0,0,39] = 0
 R40: m[0,0,40] = 0
 R41: m[0,0,41] = 0
 R42: m[0,0,42] = 0
 R43: m[0,0,43] = 0
 R44: m[0,0,44] = 0
 R45: m[0,0,45] = 0
 R46: m[0,0,46] = 0
 R47: m[0,0,47] = 0
 R48: m[0,0,48] = 0
 R49: m[0,0,49] = 0
 R50: m[0,0,50] = 0
 R51: m[0,0,51] = 0
 R52: m[0,0,52] = 0
 R53: m[0,0,53] = 0
 R54: m[0,0,54] = 0
 R55: m[0,0,55] = 0
 R56: m[0,0,56] = 0
 R57: m[0,0,57] = 0
 R58: m[0,0,58] = 0
 R59: m[0,0,59] = 0
 R60: m[0,0,60] = 0
 R61: m[0,0,61] = 0
 R62: m[0,0,62] = 0
 R63: m[0,0,63] = 0
 R64: m[13,1,0] = 0
 R65: m[13,1,1] = 0
 R66: m[13,1,2] = 0
 R67: m[13,1,3] = 0
 R68: m[13,1,4] = 0
 R69: m[13,1,5] = 0
 R70: m[13,1,6] = 0
 R71: m[13,1,7] = 0
 R72: m[13,1,8] = 0
 R73: m[13,1,9] = 0
 R74: m[13,1,10] = 0
 R75: m[13,1,11] = 0
 R76: m[13,1,12] = 0
 R77: m[13,1,13] = 0
 R78: m[13,1,14] = 0
 R79: m[13,1,15] = 0
 R80: m[13,1,16] = 0
 R81: m[13,1,17] = 0
 R82: m[13,1,18] = 0
 R83: m[13,1,19] = 0
 R84: m[13,1,20] = 0
 R85: m[13,1,21] = 0
 R86: m[13,1,22] = 0
 R87: m[13,1,23] = 0
 R88: m[13,1,24] = 0
 R89: m[13,1,25] = 0
 R90: m[13,1,26] = 0
 R91: m[13,1,27] = 0
 R92: m[13,1,28] = 0
 R93: m[13,1,29] = 0
 R94: m[13,1,30] = 0
 R95: m[13,1,31] = 0
 R96: m[13,1,32] = 0
 R97: m[13,1,33] = 0
 R98: m[13,1,34] = 0
 R99: m[13,1,35] = 0
 R100: m[13,1,36] = 0
 R101: m[13,1,37] = 0
 R102: m[13,1,38] = 0
 R103: m[13,1,39] = 0
 R104: m[13,1,40] = 0
 R105: m[13,1,41] = 0
 R106: m[13,1,42] = 0
 R107: m[13,1,43] = 0
 R108: m[13,1,44] = 0
 R109: m[13,1,45] = 0
 R110: m[13,1,46] = 0
 R111: m[13,1,47] = 0
 R112: m[13,1,48] = 0
 R113: m[13,1,49] = 0
 R114: m[13,1,50] = 0
 R115: m[13,1,51] = 0
 R116: m[13,1,52] = 0
 R117: m[13,1,53] = 0
 R118: m[13,1,54] = 0
 R119: m[13,1,55] = 0
 R120: m[13,1,56] = 0
 R121: m[13,1,57] = 0
 R122: m[13,1,58] = 0
 R123: m[13,1,59] = 0
 R124: m[13,1,60] = 0
 R125: m[13,1,61] = 0
 R126: m[13,1,62] = 0
 R127: m[13,1,63] = 0
 mask_limit_0_0_0: m[0,0,0] = 0
 mask_limit_0_0_1: m[0,0,1] = 0
 mask_limit_0_0_2: m[0,0,2] = 0
 mask_limit_0_0_3: m[0,0,3] = 0
 mask_limit_0_0_4: m[0,0,4] = 0
 mask_limit_0_0_5: m[0,0,5] = 0
 mask_limit_0_0_6: m[0,0,6] = 0
 mask_limit_0_0_7: m[0,0,7] = 0
 mask_limit_0_0_8: m[0,0,8] = 0
 mask_limit_0_0_9: m[0,0,9] = 0
 mask_limit_0_0_10: m[0,0,10] = 0
 mask_limit_0_0_11: m[0,0,11] = 0
 mask_limit_0_0_12: m[0,0,12] = 0
 mask_limit_0_0_13: m[0,0,13] = 0
 mask_limit_0_0_14: m[0,0,14] = 0
 mask_limit_0_0_15: m[0,0,15] = 0
 mask_limit_0_0_16: m[0,0,16] = 0
 mask_limit_0_0_17: m[0,0,17] = 0
 mask_limit_0_0_18: m[0,0,18] = 0
 mask_limit_0_0_19: m[0,0,19] = 0
 mask_limit_0_0_20: m[0,0,20] = 0
 mask_limit_0_0_21: m[0,0,21] = 0
 mask_limit_0_0_22: m[0,0,22] = 0
 mask_limit_0_0_23: m[0,0,23] = 0
 mask_limit_0_0_24: m[0,0,24] = 0
 mask_limit_0_0_25: m[0,0,25] = 0
 mask_limit_0_0_26: m[0,0,26] = 0
 mask_limit_0_0_27: m[0,0,27] = 0
 mask_limit_0_0_28: m[0,0,28] = 0
 mask_limit_0_0_29: m[0,0,29] = 0
 mask_limit_0_0_30: m[0,0,30] = 0
 mask_limit_0_0_31: m[0,0,31] = 0
 mask_limit_0_0_32: m[0,0,32] = 0
 mask_limit_0_0_33: m[0,0,33] = 0
 mask_limit_0_0_34: m[0,0,34] = 0
 mask_limit_0_0_35: m[0,0,35] = 0
 mask_limit_0_0_36: m[0,0,36] = 0
 mask_limit_0_0_37: m[0,0,37] = 0
 mask_limit_0_0_38: m[0,0,38] = 0
 mask_limit_0_0_39: m[0,0,39] = 0
 mask_limit_0_0_40: m[0,0,40] = 0
 mask_limit_0_0_41: m[0,0,41] = 0
 mask_limit_0_0_42: m[0,0,42] = 0
 mask_limit_0_0_43: m[0,0,43] = 0
 mask_limit_0_0_44: m[0,0,44] = 0
 mask_limit_0_0_45: m[0,0,45] = 0
 mask_limit_0_0_46: m[0,0,46] = 0
 mask_limit_0_0_47: m[0,0,47] = 0
 mask_limit_0_0_48: m[0,0,48] = 0
 mask_limit_0_0_49: m[0,0,49] = 0
 mask_limit_0_0_50: m[0,0,50] = 0
 mask_limit_0_0_51: m[0,0,51] = 0
 mask_limit_0_0_52: m[0,0,52] = 0
 mask_limit_0_0_53: m[0,0,53] = 0
 mask_limit_0_0_54: m[0,0,54] = 0
 mask_limit_0_0_55: m[0,0,55] = 0
 mask_limit_0_0_56: m[0,0,56] = 0
 mask_limit_0_0_57: m[0,0,57] = 0
 mask_limit_0_0_58: m[0,0,58] = 0
 mask_limit_0_0_59: m[0,0,59] = 0
 mask_limit_0_0_60: m[0,0,60] = 0
 mask_limit_0_0_61: m[0,0,61] = 0
 mask_limit_0_0_62: m[0,0,62] = 0
 mask_limit_0_0_63: m[0,0,63] = 0
 mask_limit_0_1_0: m[0,1,0] = 0
 mask_limit_0_1_1: m[0,1,1] = 0
 mask_limit_0_1_2: m[0,1,2] = 0
 mask_limit_0_1_3: m[0,1,3] = 0
 mask_limit_0_1_4: m[0,1,4] = 0
 mask_limit_0_1_5: m[0,1,5] = 0
 mask_limit_0_1_6: m[0,1,6] = 0
 mask_limit_0_1_7: m[0,1,7] = 0
 mask_limit_0_1_8: m[0,1,8] = 0
 mask_limit_0_1_9: m[0,1,9] = 0
 mask_limit_0_1_10: m[0,1,10] = 0
 mask_limit_0_1_11: m[0,1,11] = 0
 mask_limit_0_1_12: m[0,1,12] = 0
 mask_limit_0_1_13: m[0,1,13] = 0
 mask_limit_0_1_14: m[0,1,14] = 0
 mask_limit_0_1_15: m[0,1,15] = 0
 mask_limit_0_1_16: m[0,1,16] = 0
 mask_limit_0_1_17: m[0,1,17] = 0
 mask_limit_0_1_18: m[0,1,18] = 0
 mask_limit_0_1_19: m[0,1,19] = 0
 mask_limit_0_1_20: m[0,1,20] = 0
 mask_limit_0_1_21: m[0,1,21] = 0
 mask_limit_0_1_22: m[0,1,22] = 0
 mask_limit_0_1_23: m[0,1,23] = 0
 mask_limit_0_1_24: m[0,1,24] = 0
 mask_limit_0_1_25: m[0,1,25] = 0
 mask_limit_0_1_26: m[0,1,26] = 0
 mask_limit_0_1_27: m[0,1,27] = 0
 mask_limit_0_1_28: m[0,1,28] = 0
 mask_limit_0_1_29: m[0,1,29] = 0
 mask_limit_0_1_30: m[0,1,30] = 0
 mask_limit_0_1_31: m[0,1,31] = 0
 mask_limit_0_1_32: m[0,1,32] = 0
 mask_limit_0_1_33: m[0,1,33] = 0
 mask_limit_0_1_34: m[0,1,34] = 0
 mask_limit_0_1_35: m[0,1,35] = 0
 mask_limit_0_1_36: m[0,1,36] = 0
 mask_limit_0_1_37: m[0,1,37] = 0
 mask_limit_0_1_38: m[0,1,38] = 0
 mask_limit_0_1_39: m[0,1,39] = 0
 mask_limit_0_1_40: m[0,1,40] = 0
 mask_limit_0_1_41: m[0,1,41] = 0
 mask_limit_0_1_42: m[0,1,42] = 0
 mask_limit_0_1_43: m[0,1,43] = 0
 mask_limit_0_1_44: m[0,1,44] = 0
 mask_limit_0_1_45: m[0,1,45] = 0
 mask_limit_0_1_46: m[0,1,46] = 0
 mask_limit_0_1_47: m[0,1,47] = 0
 mask_limit_0_1_48: m[0,1,48] = 0
 mask_limit_0_1_49: m[0,1,49] = 0
 mask_limit_0_1_50: m[0,1,50] = 0
 mask_limit_0_1_51: m[0,1,51] = 0
 mask_limit_0_1_52: m[0,1,52] = 0
 mask_limit_0_1_53: m[0,1,53] = 0
 mask_limit_0_1_54: m[0,1,54] = 0
 mask_limit_0_1_55: m[0,1,55] = 0
 mask_limit_0_1_56: m[0,1,56] = 0
 mask_limit_0_1_57: m[0,1,57] = 0
 mask_limit_0_1_58: m[0,1,58] = 0
 mask_limit_0_1_59: m[0,1,59] = 0
 mask_limit_0_1_60: m[0,1,60] = 0
 mask_limit_0_1_61: m[0,1,61] = 0
 mask_limit_0_1_62: m[0,1,62] = 0
 mask_limit_0_1_63: m[0,1,63] = 0
 mask_limit_1_0_0: m[1,0,0] = 0
 mask_limit_1_0_1: m[1,0,1] = 0
 mask_limit_1_0_2: m[1,0,2] = 0
 mask_limit_1_0_3: m[1,0,3] = 0
 mask_limit_1_0_4: m[1,0,4] = 0
 mask_limit_1_0_5: m[1,0,5] = 0
 mask_limit_1_0_6: m[1,0,6] = 0
 mask_limit_1_0_7: m[1,0,7] = 0
 mask_limit_1_0_8: m[1,0,8] = 0
 mask_limit_1_0_9: m[1,0,9] = 0
 mask_limit_1_0_10: m[1,0,10] = 0
 mask_limit_1_0_11: m[1,0,11] = 0
 mask_limit_1_0_12: m[1,0,12] = 0
 mask_limit_1_0_13: m[1,0,13] = 0
 mask_limit_1_0_14: m[1,0,14] = 0
 mask_limit_1_0_15: m[1,0,15] = 0
 mask_limit_1_0_16: m[1,0,16] = 0
 mask_limit_1_0_17: m[1,0,17] = 0
 mask_limit_1_0_18: m[1,0,18] = 0
 mask_limit_1_0_19: m[1,0,19] = 0
 mask_limit_1_0_20: m[1,0,20] = 0
 mask_limit_1_0_21: m[1,0,21] = 0
 mask_limit_1_0_22: m[1,0,22] = 0
 mask_limit_1_0_23: m[1,0,23] = 0
 mask_limit_1_0_24: m[1,0,24] = 0
 mask_limit_1_0_25: m[1,0,25] = 0
 mask_limit_1_0_26: m[1,0,26] = 0
 mask_limit_1_0_27: m[1,0,27] = 0
 mask_limit_1_0_28: m[1,0,28] = 0
 mask_limit_1_0_29: m[1,0,29] = 0
 mask_limit_1_0_30: m[1,0,30] = 0
 mask_limit_1_0_31: m[1,0,31] = 0
 mask_limit_1_0_32: m[1,0,32] = 0
 mask_limit_1_0_33: m[1,0,33] = 0
 mask_limit_1_0_34: m[1,0,34] = 0
 mask_limit_1_0_35: m[1,0,35] = 0
 mask_limit_1_0_36: m[1,0,36] = 0
 mask_limit_1_0_37: m[1,0,37] = 0
 mask_limit_1_0_38: m[1,0,38] = 0
 mask_limit_1_0_39: m[1,0,39] = 0
 mask_limit_1_0_40: m[1,0,40] = 0
 mask_limit_1_0_41: m[1,0,41] = 0
 mask_limit_1_0_42: m[1,0,42] = 0
 mask_limit_1_0_43: m[1,0,43] = 0
 mask_limit_1_0_44: m[1,0,44] = 0
 mask_limit_1_0_45: m[1,0,45] = 0
 mask_limit_1_0_46: m[1,0,46] = 0
 mask_limit_1_0_47: m[1,0,47] = 0
 mask_limit_1_0_48: m[1,0,48] = 0
 mask_limit_1_0_49: m[1,0,49] = 0
 mask_limit_1_0_50: m[1,0,50] = 0
 mask_limit_1_0_51: m[1,0,51] = 0
 mask_limit_1_0_52: m[1,0,52] = 0
 mask_limit_1_0_53: m[1,0,53] = 0
 mask_limit_1_0_54: m[1,0,54] = 0
 mask_limit_1_0_55: m[1,0,55] = 0
 mask_limit_1_0_56: m[1,0,56] = 0
 mask_limit_1_0_57: m[1,0,57] = 0
 mask_limit_1_0_58: m[1,0,58] = 0
 mask_limit_1_0_59: m[1,0,59] = 0
 mask_limit_1_0_60: m[1,0,60] = 0
 mask_limit_1_0_61: m[1,0,61] = 0
 mask_limit_1_0_62: m[1,0,62] = 0
 mask_limit_1_0_63: m[1,0,63] = 0
 mask_limit_1_1_0: m[1,1,0] = 0
 mask_limit_1_1_1: m[1,1,1] = 0
 mask_limit_1_1_2: m[1,1,2] = 0
 mask_limit_1_1_3: m[1,1,3] = 0
 mask_limit_1_1_4: m[1,1,4] = 0
 mask_limit_1_1_5: m[1,1,5] = 0
 mask_limit_1_1_6: m[1,1,6] = 0
 mask_limit_1_1_7: m[1,1,7] = 0
 mask_limit_1_1_8: m[1,1,8] = 0
 mask_limit_1_1_9: m[1,1,9] = 0
 mask_limit_1_1_10: m[1,1,10] = 0
 mask_limit_1_1_11: m[1,1,11] = 0
 mask_limit_1_1_12: m[1,1,12] = 0
 mask_limit_1_1_13: m[1,1,13] = 0
 mask_limit_1_1_14: m[1,1,14] = 0
 mask_limit_1_1_15: m[1,1,15] = 0
 mask_limit_1_1_16: m[1,1,16] = 0
 mask_limit_1_1_17: m[1,1,17] = 0
 mask_limit_1_1_18: m[1,1,18] = 0
 mask_limit_1_1_19: m[1,1,19] = 0
 mask_limit_1_1_20: m[1,1,20] = 0
 mask_limit_1_1_21: m[1,1,21] = 0
 mask_limit_1_1_22: m[1,1,22] = 0
 mask_limit_1_1_23: m[1,1,23] = 0
 mask_limit_1_1_24: m[1,1,24] = 0
 mask_limit_1_1_25: m[1,1,25] = 0
 mask_limit_1_1_26: m[1,1,26] = 0
 mask_limit_1_1_27: m[1,1,27] = 0
 mask_limit_1_1_28: m[1,1,28] = 0
 mask_limit_1_1_29: m[1,1,29] = 0
 mask_limit_1_1_30: m[1,1,30] = 0
 mask_limit_1_1_31: m[1,1,31] = 0
 mask_limit_1_1_32: m[1,1,32] = 0
 mask_limit_1_1_33: m[1,1,33] = 0
 mask_limit_1_1_34: m[1,1,34] = 0
 mask_limit_1_1_35: m[1,1,35] = 0
 mask_limit_1_1_36: m[1,1,36] = 0
 mask_limit_1_1_37: m[1,1,37] = 0
 mask_limit_1_1_38: m[1,1,38] = 0
 mask_limit_1_1_39: m[1,1,39] = 0
 mask_limit_1_1_40: m[1,1,40] = 0
 mask_limit_1_1_41: m[1,1,41] = 0
 mask_limit_1_1_42: m[1,1,42] = 0
 mask_limit_1_1_43: m[1,1,43] = 0
 mask_limit_1_1_44: m[1,1,44] = 0
 mask_limit_1_1_45: m[1,1,45] = 0
 mask_limit_1_1_46: m[1,1,46] = 0
 mask_limit_1_1_47: m[1,1,47] = 0
 mask_limit_1_1_48: m[1,1,48] = 0
 mask_limit_1_1_49: m[1,1,49] = 0
 mask_limit_1_1_50: m[1,1,50] = 0
 mask_limit_1_1_51: m[1,1,51] = 0
 mask_limit_1_1_52: m[1,1,52] = 0
 mask_limit_1_1_53: m[1,1,53] = 0
 mask_limit_1_1_54: m[1,1,54] = 0
 mask_limit_1_1_55: m[1,1,55] = 0
 mask_limit_1_1_56: m[1,1,56] = 0
 mask_limit_1_1_57: m[1,1,57] = 0
 mask_limit_1_1_58: m[1,1,58] = 0
 mask_limit_1_1_59: m[1,1,59] = 0
 mask_limit_1_1_60: m[1,1,60] = 0
 mask_limit_1_1_61: m[1,1,61] = 0
 mask_limit_1_1_62: m[1,1,62] = 0
 mask_limit_1_1_63: m[1,1,63] = 0
 mask_limit_2_0_0: m[2,0,0] = 0
 mask_limit_2_0_1: m[2,0,1] = 0
 mask_limit_2_0_2: m[2,0,2] = 0
 mask_limit_2_0_3: m[2,0,3] = 0
 mask_limit_2_0_4: m[2,0,4] = 0
 mask_limit_2_0_5: m[2,0,5] = 0
 mask_limit_2_0_6: m[2,0,6] = 0
 mask_limit_2_0_7: m[2,0,7] = 0
 mask_limit_2_0_8: m[2,0,8] = 0
 mask_limit_2_0_9: m[2,0,9] = 0
 mask_limit_2_0_10: m[2,0,10] = 0
 mask_limit_2_0_11: m[2,0,11] = 0
 mask_limit_2_0_12: m[2,0,12] = 0
 mask_limit_2_0_13: m[2,0,13] = 0
 mask_limit_2_0_14: m[2,0,14] = 0
 mask_limit_2_0_15: m[2,0,15] = 0
 mask_limit_2_0_16: m[2,0,16] = 0
 mask_limit_2_0_17: m[2,0,17] = 0
 mask_limit_2_0_18: m[2,0,18] = 0
 mask_limit_2_0_19: m[2,0,19] = 0
 mask_limit_2_0_20: m[2,0,20] = 0
 mask_limit_2_0_21: m[2,0,21] = 0
 mask_limit_2_0_22: m[2,0,22] = 0
 mask_limit_2_0_23: m[2,0,23] = 0
 mask_limit_2_0_24: m[2,0,24] = 0
 mask_limit_2_0_25: m[2,0,25] = 0
 mask_limit_2_0_26: m[2,0,26] = 0
 mask_limit_2_0_27: m[2,0,27] = 0
 mask_limit_2_0_28: m[2,0,28] = 0
 mask_limit_2_0_29: m[2,0,29] = 0
 mask_limit_2_0_30: m[2,0,30] = 0
 mask_limit_2_0_31: m[2,0,31] = 0
 mask_limit_2_0_32: m[2,0,32] = 0
 mask_limit_2_0_33: m[2,0,33] = 0
 mask_limit_2_0_34: m[2,0,34] = 0
 mask_limit_2_0_35: m[2,0,35] = 0
 mask_limit_2_0_36: m[2,0,36] = 0
 mask_limit_2_0_37: m[2,0,37] = 0
 mask_limit_2_0_38: m[2,0,38] = 0
 mask_limit_2_0_39: m[2,0,39] = 0
 mask_limit_2_0_40: m[2,0,40] = 0
 mask_limit_2_0_41: m[2,0,41] = 0
 mask_limit_2_0_42: m[2,0,42] = 0
 mask_limit_2_0_43: m[2,0,43] = 0
 mask_limit_2_0_44: m[2,0,44] = 0
 mask_limit_2_0_45: m[2,0,45] = 0
 mask_limit_2_0_46: m[2,0,46] = 0
 mask_limit_2_0_47: m[2,0,47] = 0
 mask_limit_2_0_48: m[2,0,48] = 0
 mask_limit_2_0_49: m[2,0,49] = 0
 mask_limit_2_0_50: m[2,0,50] = 0
 mask_limit_2_0_51: m[2,0,51] = 0
 mask_limit_2_0_52: m[2,0,52] = 0
 mask_limit_2_0_53: m[2,0,53] = 0
 mask_limit_2_0_54: m[2,0,54] = 0
 mask_limit_2_0_55: m[2,0,55] = 0
 mask_limit_2_0_56: m[2,0,56] = 0
 mask_limit_2_0_57: m[2,0,57] = 0
 mask_limit_2_0_58: m[2,0,58] = 0
 mask_limit_2_0_59: m[2,0,59] = 0
 mask_limit_2_0_60: m[2,0,60] = 0
 mask_limit_2_0_61: m[2,0,61] = 0
 mask_limit_2_0_62: m[2,0,62] = 0
 mask_limit_2_0_63: m[2,0,63] = 0
 mask_limit_2_1_0: m[2,1,0] = 0
 mask_limit_2_1_1: m[2,1,1] = 0
 mask_limit_2_1_2: m[2,1,2] = 0
 mask_limit_2_1_3: m[2,1,3] = 0
 mask_limit_2_1_4: m[2,1,4] = 0
 mask_limit_2_1_5: m[2,1,5] = 0
 mask_limit_2_1_6: m[2,1,6] = 0
 mask_limit_2_1_7: m[2,1,7] = 0
 mask_limit_2_1_8: m[2,1,8] = 0
 mask_limit_2_1_9: m[2,1,9] = 0
 mask_limit_2_1_10: m[2,1,10] = 0
 mask_limit_2_1_11: m[2,1,11] = 0
 mask_limit_2_1_12: m[2,1,12] = 0
 mask_limit_2_1_13: m[2,1,13] = 0
 mask_limit_2_1_14: m[2,1,14] = 0
 mask_limit_2_1_15: m[2,1,15] = 0
 mask_limit_2_1_16: m[2,1,16] = 0
 mask_limit_2_1_17: m[2,1,17] = 0
 mask_limit_2_1_18: m[2,1,18] = 0
 mask_limit_2_1_19: m[2,1,19] = 0
 mask_limit_2_1_20: m[2,1,20] = 0
 mask_limit_2_1_21: m[2,1,21] = 0
 mask_limit_2_1_22: m[2,1,22] = 0
 mask_limit_2_1_23: m[2,1,23] = 0
 mask_limit_2_1_24: m[2,1,24] = 0
 mask_limit_2_1_25: m[2,1,25] = 0
 mask_limit_2_1_26: m[2,1,26] = 0
 mask_limit_2_1_27: m[2,1,27] = 0
 mask_limit_2_1_28: m[2,1,28] = 0
 mask_limit_2_1_29: m[2,1,29] = 0
 mask_limit_2_1_30: m[2,1,30] = 0
 mask_limit_2_1_31: m[2,1,31] = 0
 mask_limit_2_1_32: m[2,1,32] = 0
 mask_limit_2_1_33: m[2,1,33] = 0
 mask_limit_2_1_34: m[2,1,34] = 0
 mask_limit_2_1_35: m[2,1,35] = 0
 mask_limit_2_1_36: m[2,1,36] = 0
 mask_limit_2_1_37: m[2,1,37] = 0
 mask_limit_2_1_38: m[2,1,38] = 0
 mask_limit_2_1_39: m[2,1,39] = 0
 mask_limit_2_1_40: m[2,1,40] = 0
 mask_limit_2_1_41: m[2,1,41] = 0
 mask_limit_2_1_42: m[2,1,42] = 0
 mask_limit_2_1_43: m[2,1,43] = 0
 mask_limit_2_1_44: m[2,1,44] = 0
 mask_limit_2_1_45: m[2,1,45] = 0
 mask_limit_2_1_46: m[2,1,46] = 0
 mask_limit_2_1_47: m[2,1,47] = 0
 mask_limit_2_1_48: m[2,1,48] = 0
 mask_limit_2_1_49: m[2,1,49] = 0
 mask_limit_2_1_50: m[2,1,50] = 0
 mask_limit_2_1_51: m[2,1,51] = 0
 mask_limit_2_1_52: m[2,1,52] = 0
 mask_limit_2_1_53: m[2,1,53] = 0
 mask_limit_2_1_54: m[2,1,54] = 0
 mask_limit_2_1_55: m[2,1,55] = 0
 mask_limit_2_1_56: m[2,1,56] = 0
 mask_limit_2_1_57: m[2,1,57] = 0
 mask_limit_2_1_58: m[2,1,58] = 0
 mask_limit_2_1_59: m[2,1,59] = 0
 mask_limit_2_1_60: m[2,1,60] = 0
 mask_limit_2_1_61: m[2,1,61] = 0
 mask_limit_2_1_62: m[2,1,62] = 0
 mask_limit_2_1_63: m[2,1,63] = 0
 mask_limit_3_0_0: m[3,0,0] = 0
 mask_limit_3_0_1: m[3,0,1] = 0
 mask_limit_3_0_2: m[3,0,2] = 0
 mask_limit_3_0_3: m[3,0,3] = 0
 mask_limit_3_0_4: m[3,0,4] = 0
 mask_limit_3_0_5: m[3,0,5] = 0
 mask_limit_3_0_6: m[3,0,6] = 0
 mask_limit_3_0_7: m[3,0,7] = 0
 mask_limit_3_0_8: m[3,0,8] = 0
 mask_limit_3_0_9: m[3,0,9] = 0
 mask_limit_3_0_10: m[3,0,10] = 0
 mask_limit_3_0_11: m[3,0,11] = 0
 mask_limit_3_0_12: m[3,0,12] = 0
 mask_limit_3_0_13: m[3,0,13] = 0
 mask_limit_3_0_14: m[3,0,14] = 0
 mask_limit_3_0_15: m[3,0,15] = 0
 mask_limit_3_0_16: m[3,0,16] = 0
 mask_limit_3_0_17: m[3,0,17] = 0
 mask_limit_3_0_18: m[3,0,18] = 0
 mask_limit_3_0_19: m[3,0,19] = 0
 mask_limit_3_0_20: m[3,0,20] = 0
 mask_limit_3_0_21: m[3,0,21] = 0
 mask_limit_3_0_22: m[3,0,22] = 0
 mask_limit_3_0_23: m[3,0,23] = 0
 mask_limit_3_0_24: m[3,0,24] = 0
 mask_limit_3_0_25: m[3,0,25] = 0
 mask_limit_3_0_26: m[3,0,26] = 0
 mask_limit_3_0_27: m[3,0,27] = 0
 mask_limit_3_0_28: m[3,0,28] = 0
 mask_limit_3_0_29: m[3,0,29] = 0
 mask_limit_3_0_30: m[3,0,30] = 0
 mask_limit_3_0_31: m[3,0,31] = 0
 mask_limit_3_0_32: m[3,0,32] = 0
 mask_limit_3_0_33: m[3,0,33] = 0
 mask_limit_3_0_34: m[3,0,34] = 0
 mask_limit_3_0_35: m[3,0,35] = 0
 mask_limit_3_0_36: m[3,0,36] = 0
 mask_limit_3_0_37: m[3,0,37] = 0
 mask_limit_3_0_38: m[3,0,38] = 0
 mask_limit_3_0_39: m[3,0,39] = 0
 mask_limit_3_0_40: m[3,0,40] = 0
 mask_limit_3_0_41: m[3,0,41] = 0
 mask_limit_3_0_42: m[3,0,42] = 0
 mask_limit_3_0_43: m[3,0,43] = 0
 mask_limit_3_0_44: m[3,0,44] = 0
 mask_limit_3_0_45: m[3,0,45] = 0
 mask_limit_3_0_46: m[3,0,46] = 0
 mask_limit_3_0_47: m[3,0,47] = 0
 mask_limit_3_0_48: m[3,0,48] = 0
 mask_limit_3_0_49: m[3,0,49] = 0
 mask_limit_3_0_50: m[3,0,50] = 0
 mask_limit_3_0_51: m[3,0,51] = 0
 mask_limit_3_0_52: m[3,0,52] = 0
 mask_limit_3_0_53: m[3,0,53] = 0
 mask_limit_3_0_54: m[3,0,54] = 0
 mask_limit_3_0_55: m[3,0,55] = 0
 mask_limit_3_0_56: m[3,0,56] = 0
 mask_limit_3_0_57: m[3,0,57] = 0
 mask_limit_3_0_58: m[3,0,58] = 0
 mask_limit_3_0_59: m[3,0,59] = 0
 mask_limit_3_0_60: m[3,0,60] = 0
 mask_limit_3_0_61: m[3,0,61] = 0
 mask_limit_3_0_62: m[3,0,62] = 0
 mask_limit_3_0_63: m[3,0,63] = 0
 mask_limit_3_1_0: m[3,1,0] = 0
 mask_limit_3_1_1: m[3,1,1] = 0
 mask_limit_3_1_2: m[3,1,2] = 0
 mask_limit_3_1_3: m[3,1,3] = 0
 mask_limit_3_1_4: m[3,1,4] = 0
 mask_limit_3_1_5: m[3,1,5] = 0
 mask_limit_3_1_6: m[3,1,6] = 0
 mask_limit_3_1_7: m[3,1,7] = 0
 mask_limit_3_1_8: m[3,1,8] = 0
 mask_limit_3_1_9: m[3,1,9] = 0
 mask_limit_3_1_10: m[3,1,10] = 0
 mask_limit_3_1_11: m[3,1,11] = 0
 mask_limit_3_1_12: m[3,1,12] = 0
 mask_limit_3_1_13: m[3,1,13] = 0
 mask_limit_3_1_14: m[3,1,14] = 0
 mask_limit_3_1_15: m[3,1,15] = 0
 mask_limit_3_1_16: m[3,1,16] = 0
 mask_limit_3_1_17: m[3,1,17] = 0
 mask_limit_3_1_18: m[3,1,18] = 0
 mask_limit_3_1_19: m[3,1,19] = 0
 mask_limit_3_1_20: m[3,1,20] = 0
 mask_limit_3_1_21: m[3,1,21] = 0
 mask_limit_3_1_22: m[3,1,22] = 0
 mask_limit_3_1_23: m[3,1,23] = 0
 mask_limit_3_1_24: m[3,1,24] = 0
 mask_limit_3_1_25: m[3,1,25] = 0
 mask_limit_3_1_26: m[3,1,26] = 0
 mask_limit_3_1_27: m[3,1,27] = 0
 mask_limit_3_1_28: m[3,1,28] = 0
 mask_limit_3_1_29: m[3,1,29] = 0
 mask_limit_3_1_30: m[3,1,30] = 0
 mask_limit_3_1_31: m[3,1,31] = 0
 mask_limit_3_1_32: m[3,1,32] = 0
 mask_limit_3_1_33: m[3,1,33] = 0
 mask_limit_3_1_34: m[3,1,34] = 0
 mask_limit_3_1_35: m[3,1,35] = 0
 mask_limit_3_1_36: m[3,1,36] = 0
 mask_limit_3_1_37: m[3,1,37] = 0
 mask_limit_3_1_38: m[3,1,38] = 0
 mask_limit_3_1_39: m[3,1,39] = 0
 mask_limit_3_1_40: m[3,1,40] = 0
 mask_limit_3_1_41: m[3,1,41] = 0
 mask_limit_3_1_42: m[3,1,42] = 0
 mask_limit_3_1_43: m[3,1,43] = 0
 mask_limit_3_1_44: m[3,1,44] = 0
 mask_limit_3_1_45: m[3,1,45] = 0
 mask_limit_3_1_46: m[3,1,46] = 0
 mask_limit_3_1_47: m[3,1,47] = 0
 mask_limit_3_1_48: m[3,1,48] = 0
 mask_limit_3_1_49: m[3,1,49] = 0
 mask_limit_3_1_50: m[3,1,50] = 0
 mask_limit_3_1_51: m[3,1,51] = 0
 mask_limit_3_1_52: m[3,1,52] = 0
 mask_limit_3_1_53: m[3,1,53] = 0
 mask_limit_3_1_54: m[3,1,54] = 0
 mask_limit_3_1_55: m[3,1,55] = 0
 mask_limit_3_1_56: m[3,1,56] = 0
 mask_limit_3_1_57: m[3,1,57] = 0
 mask_limit_3_1_58: m[3,1,58] = 0
 mask_limit_3_1_59: m[3,1,59] = 0
 mask_limit_3_1_60: m[3,1,60] = 0
 mask_limit_3_1_61: m[3,1,61] = 0
 mask_limit_3_1_62: m[3,1,62] = 0
 mask_limit_3_1_63: m[3,1,63] = 0
 mask_limit_4_0_0: m[4,0,0] = 0
 mask_limit_4_0_1: m[4,0,1] = 0
 mask_limit_4_0_2: m[4,0,2] = 0
 mask_limit_4_0_3: m[4,0,3] = 0
 mask_limit_4_0_4: m[4,0,4] = 0
 mask_limit_4_0_5: m[4,0,5] = 0
 mask_limit_4_0_6: m[4,0,6] = 0
 mask_limit_4_0_7: m[4,0,7] = 0
 mask_limit_4_0_8: m[4,0,8] = 0
 mask_limit_4_0_9: m[4,0,9] = 0
 mask_limit_4_0_10: m[4,0,10] = 0
 mask_limit_4_0_11: m[4,0,11] = 0
 mask_limit_4_0_12: m[4,0,12] = 0
 mask_limit_4_0_13: m[4,0,13] = 0
 mask_limit_4_0_14: m[4,0,14] = 0
 mask_limit_4_0_15: m[4,0,15] = 0
 mask_limit_4_0_16: m[4,0,16] = 0
 mask_limit_4_0_17: m[4,0,17] = 0
 mask_limit_4_0_18: m[4,0,18] = 0
 mask_limit_4_0_19: m[4,0,19] = 0
 mask_limit_4_0_20: m[4,0,20] = 0
 mask_limit_4_0_21: m[4,0,21] = 0
 mask_limit_4_0_22: m[4,0,22] = 0
 mask_limit_4_0_23: m[4,0,23] = 0
 mask_limit_4_0_24: m[4,0,24] = 0
 mask_limit_4_0_25: m[4,0,25] = 0
 mask_limit_4_0_26: m[4,0,26] = 0
 mask_limit_4_0_27: m[4,0,27] = 0
 mask_limit_4_0_28: m[4,0,28] = 0
 mask_limit_4_0_29: m[4,0,29] = 0
 mask_limit_4_0_30: m[4,0,30] = 0
 mask_limit_4_0_31: m[4,0,31] = 0
 mask_limit_4_0_32: m[4,0,32] = 0
 mask_limit_4_0_33: m[4,0,33] = 0
 mask_limit_4_0_34: m[4,0,34] = 0
 mask_limit_4_0_35: m[4,0,35] = 0
 mask_limit_4_0_36: m[4,0,36] = 0
 mask_limit_4_0_37: m[4,0,37] = 0
 mask_limit_4_0_38: m[4,0,38] = 0
 mask_limit_4_0_39: m[4,0,39] = 0
 mask_limit_4_0_40: m[4,0,40] = 0
 mask_limit_4_0_41: m[4,0,41] = 0
 mask_limit_4_0_42: m[4,0,42] = 0
 mask_limit_4_0_43: m[4,0,43] = 0
 mask_limit_4_0_44: m[4,0,44] = 0
 mask_limit_4_0_45: m[4,0,45] = 0
 mask_limit_4_0_46: m[4,0,46] = 0
 mask_limit_4_0_47: m[4,0,47] = 0
 mask_limit_4_0_48: m[4,0,48] = 0
 mask_limit_4_0_49: m[4,0,49] = 0
 mask_limit_4_0_50: m[4,0,50] = 0
 mask_limit_4_0_51: m[4,0,51] = 0
 mask_limit_4_0_52: m[4,0,52] = 0
 mask_limit_4_0_53: m[4,0,53] = 0
 mask_limit_4_0_54: m[4,0,54] = 0
 mask_limit_4_0_55: m[4,0,55] = 0
 mask_limit_4_0_56: m[4,0,56] = 0
 mask_limit_4_0_57: m[4,0,57] = 0
 mask_limit_4_0_58: m[4,0,58] = 0
 mask_limit_4_0_59: m[4,0,59] = 0
 mask_limit_4_0_60: m[4,0,60] = 0
 mask_limit_4_0_61: m[4,0,61] = 0
 mask_limit_4_0_62: m[4,0,62] = 0
 mask_limit_4_0_63: m[4,0,63] = 0
 mask_limit_4_1_0: m[4,1,0] = 0
 mask_limit_4_1_1: m[4,1,1] = 0
 mask_limit_4_1_2: m[4,1,2] = 0
 mask_limit_4_1_3: m[4,1,3] = 0
 mask_limit_4_1_4: m[4,1,4] = 0
 mask_limit_4_1_5: m[4,1,5] = 0
 mask_limit_4_1_6: m[4,1,6] = 0
 mask_limit_4_1_7: m[4,1,7] = 0
 mask_limit_4_1_8: m[4,1,8] = 0
 mask_limit_4_1_9: m[4,1,9] = 0
 mask_limit_4_1_10: m[4,1,10] = 0
 mask_limit_4_1_11: m[4,1,11] = 0
 mask_limit_4_1_12: m[4,1,12] = 0
 mask_limit_4_1_13: m[4,1,13] = 0
 mask_limit_4_1_14: m[4,1,14] = 0
 mask_limit_4_1_15: m[4,1,15] = 0
 mask_limit_4_1_16: m[4,1,16] = 0
 mask_limit_4_1_17: m[4,1,17] = 0
 mask_limit_4_1_18: m[4,1,18] = 0
 mask_limit_4_1_19: m[4,1,19] = 0
 mask_limit_4_1_20: m[4,1,20] = 0
 mask_limit_4_1_21: m[4,1,21] = 0
 mask_limit_4_1_22: m[4,1,22] = 0
 mask_limit_4_1_23: m[4,1,23] = 0
 mask_limit_4_1_24: m[4,1,24] = 0
 mask_limit_4_1_25: m[4,1,25] = 0
 mask_limit_4_1_26: m[4,1,26] = 0
 mask_limit_4_1_27: m[4,1,27] = 0
 mask_limit_4_1_28: m[4,1,28] = 0
 mask_limit_4_1_29: m[4,1,29] = 0
 mask_limit_4_1_30: m[4,1,30] = 0
 mask_limit_4_1_31: m[4,1,31] = 0
 mask_limit_4_1_32: m[4,1,32] = 0
 mask_limit_4_1_33: m[4,1,33] = 0
 mask_limit_4_1_34: m[4,1,34] = 0
 mask_limit_4_1_35: m[4,1,35] = 0
 mask_limit_4_1_36: m[4,1,36] = 0
 mask_limit_4_1_37: m[4,1,37] = 0
 mask_limit_4_1_38: m[4,1,38] = 0
 mask_limit_4_1_39: m[4,1,39] = 0
 mask_limit_4_1_40: m[4,1,40] = 0
 mask_limit_4_1_41: m[4,1,41] = 0
 mask_limit_4_1_42: m[4,1,42] = 0
 mask_limit_4_1_43: m[4,1,43] = 0
 mask_limit_4_1_44: m[4,1,44] = 0
 mask_limit_4_1_45: m[4,1,45] = 0
 mask_limit_4_1_46: m[4,1,46] = 0
 mask_limit_4_1_47: m[4,1,47] = 0
 mask_limit_4_1_48: m[4,1,48] = 0
 mask_limit_4_1_49: m[4,1,49] = 0
 mask_limit_4_1_50: m[4,1,50] = 0
 mask_limit_4_1_51: m[4,1,51] = 0
 mask_limit_4_1_52: m[4,1,52] = 0
 mask_limit_4_1_53: m[4,1,53] = 0
 mask_limit_4_1_54: m[4,1,54] = 0
 mask_limit_4_1_55: m[4,1,55] = 0
 mask_limit_4_1_56: m[4,1,56] = 0
 mask_limit_4_1_57: m[4,1,57] = 0
 mask_limit_4_1_58: m[4,1,58] = 0
 mask_limit_4_1_59: m[4,1,59] = 0
 mask_limit_4_1_60: m[4,1,60] = 0
 mask_limit_4_1_61: m[4,1,61] = 0
 mask_limit_4_1_62: m[4,1,62] = 0
 mask_limit_4_1_63: m[4,1,63] = 0
 mask_limit_5_0_0: m[5,0,0] = 0
 mask_limit_5_0_1: m[5,0,1] = 0
 mask_limit_5_0_2: m[5,0,2] = 0
 mask_limit_5_0_3: m[5,0,3] = 0
 mask_limit_5_0_4: m[5,0,4] = 0
 mask_limit_5_0_5: m[5,0,5] = 0
 mask_limit_5_0_6: m[5,0,6] = 0
 mask_limit_5_0_7: m[5,0,7] = 0
 mask_limit_5_0_8: m[5,0,8] = 0
 mask_limit_5_0_9: m[5,0,9] = 0
 mask_limit_5_0_10: m[5,0,10] = 0
 mask_limit_5_0_11: m[5,0,11] = 0
 mask_limit_5_0_12: m[5,0,12] = 0
 mask_limit_5_0_13: m[5,0,13] = 0
 mask_limit_5_0_14: m[5,0,14] = 0
 mask_limit_5_0_15: m[5,0,15] = 0
 mask_limit_5_0_16: m[5,0,16] = 0
 mask_limit_5_0_17: m[5,0,17] = 0
 mask_limit_5_0_18: m[5,0,18] = 0
 mask_limit_5_0_19: m[5,0,19] = 0
 mask_limit_5_0_20: m[5,0,20] = 0
 mask_limit_5_0_21: m[5,0,21] = 0
 mask_limit_5_0_22: m[5,0,22] = 0
 mask_limit_5_0_23: m[5,0,23] = 0
 mask_limit_5_0_24: m[5,0,24] = 0
 mask_limit_5_0_25: m[5,0,25] = 0
 mask_limit_5_0_26: m[5,0,26] = 0
 mask_limit_5_0_27: m[5,0,27] = 0
 mask_limit_5_0_28: m[5,0,28] = 0
 mask_limit_5_0_29: m[5,0,29] = 0
 mask_limit_5_0_30: m[5,0,30] = 0
 mask_limit_5_0_31: m[5,0,31] = 0
 mask_limit_5_0_32: m[5,0,32] = 0
 mask_limit_5_0_33: m[5,0,33] = 0
 mask_limit_5_0_34: m[5,0,34] = 0
 mask_limit_5_0_35: m[5,0,35] = 0
 mask_limit_5_0_36: m[5,0,36] = 0
 mask_limit_5_0_37: m[5,0,37] = 0
 mask_limit_5_0_38: m[5,0,38] = 0
 mask_limit_5_0_39: m[5,0,39] = 0
 mask_limit_5_0_40: m[5,0,40] = 0
 mask_limit_5_0_41: m[5,0,41] = 0
 mask_limit_5_0_42: m[5,0,42] = 0
 mask_limit_5_0_43: m[5,0,43] = 0
 mask_limit_5_0_44: m[5,0,44] = 0
 mask_limit_5_0_45: m[5,0,45] = 0
 mask_limit_5_0_46: m[5,0,46] = 0
 mask_limit_5_0_47: m[5,0,47] = 0
 mask_limit_5_0_48: m[5,0,48] = 0
 mask_limit_5_0_49: m[5,0,49] = 0
 mask_limit_5_0_50: m[5,0,50] = 0
 mask_limit_5_0_51: m[5,0,51] = 0
 mask_limit_5_0_52: m[5,0,52] = 0
 mask_limit_5_0_53: m[5,0,53] = 0
 mask_limit_5_0_54: m[5,0,54] = 0
 mask_limit_5_0_55: m[5,0,55] = 0
 mask_limit_5_0_56: m[5,0,56] = 0
 mask_limit_5_0_57: m[5,0,57] = 0
 mask_limit_5_0_58: m[5,0,58] = 0
 mask_limit_5_0_59: m[5,0,59] = 0
 mask_limit_5_0_60: m[5,0,60] = 0
 mask_limit_5_0_61: m[5,0,61] = 0
 mask_limit_5_0_62: m[5,0,62] = 0
 mask_limit_5_0_63: m[5,0,63] = 0
 mask_limit_5_1_0: m[5,1,0] = 0
 mask_limit_5_1_1: m[5,1,1] = 0
 mask_limit_5_1_2: m[5,1,2] = 0
 mask_limit_5_1_3: m[5,1,3] = 0
 mask_limit_5_1_4: m[5,1,4] = 0
 mask_limit_5_1_5: m[5,1,5] = 0
 mask_limit_5_1_6: m[5,1,6] = 0
 mask_limit_5_1_7: m[5,1,7] = 0
 mask_limit_5_1_8: m[5,1,8] = 0
 mask_limit_5_1_9: m[5,1,9] = 0
 mask_limit_5_1_10: m[5,1,10] = 0
 mask_limit_5_1_11: m[5,1,11] = 0
 mask_limit_5_1_12: m[5,1,12] = 0
 mask_limit_5_1_13: m[5,1,13] = 0
 mask_limit_5_1_14: m[5,1,14] = 0
 mask_limit_5_1_15: m[5,1,15] = 0
 mask_limit_5_1_16: m[5,1,16] = 0
 mask_limit_5_1_17: m[5,1,17] = 0
 mask_limit_5_1_18: m[5,1,18] = 0
 mask_limit_5_1_19: m[5,1,19] = 0
 mask_limit_5_1_20: m[5,1,20] = 0
 mask_limit_5_1_21: m[5,1,21] = 0
 mask_limit_5_1_22: m[5,1,22] = 0
 mask_limit_5_1_23: m[5,1,23] = 0
 mask_limit_5_1_24: m[5,1,24] = 0
 mask_limit_5_1_25: m[5,1,25] = 0
 mask_limit_5_1_26: m[5,1,26] = 0
 mask_limit_5_1_27: m[5,1,27] = 0
 mask_limit_5_1_28: m[5,1,28] = 0
 mask_limit_5_1_29: m[5,1,29] = 0
 mask_limit_5_1_30: m[5,1,30] = 0
 mask_limit_5_1_31: m[5,1,31] = 0
 mask_limit_5_1_32: m[5,1,32] = 0
 mask_limit_5_1_33: m[5,1,33] = 0
 mask_limit_5_1_34: m[5,1,34] = 0
 mask_limit_5_1_35: m[5,1,35] = 0
 mask_limit_5_1_36: m[5,1,36] = 0
 mask_limit_5_1_37: m[5,1,37] = 0
 mask_limit_5_1_38: m[5,1,38] = 0
 mask_limit_5_1_39: m[5,1,39] = 0
 mask_limit_5_1_40: m[5,1,40] = 0
 mask_limit_5_1_41: m[5,1,41] = 0
 mask_limit_5_1_42: m[5,1,42] = 0
 mask_limit_5_1_43: m[5,1,43] = 0
 mask_limit_5_1_44: m[5,1,44] = 0
 mask_limit_5_1_45: m[5,1,45] = 0
 mask_limit_5_1_46: m[5,1,46] = 0
 mask_limit_5_1_47: m[5,1,47] = 0
 mask_limit_5_1_48: m[5,1,48] = 0
 mask_limit_5_1_49: m[5,1,49] = 0
 mask_limit_5_1_50: m[5,1,50] = 0
 mask_limit_5_1_51: m[5,1,51] = 0
 mask_limit_5_1_52: m[5,1,52] = 0
 mask_limit_5_1_53: m[5,1,53] = 0
 mask_limit_5_1_54: m[5,1,54] = 0
 mask_limit_5_1_55: m[5,1,55] = 0
 mask_limit_5_1_56: m[5,1,56] = 0
 mask_limit_5_1_57: m[5,1,57] = 0
 mask_limit_5_1_58: m[5,1,58] = 0
 mask_limit_5_1_59: m[5,1,59] = 0
 mask_limit_5_1_60: m[5,1,60] = 0
 mask_limit_5_1_61: m[5,1,61] = 0
 mask_limit_5_1_62: m[5,1,62] = 0
 mask_limit_5_1_63: m[5,1,63] = 0
 mask_limit_6_0_0: m[6,0,0] = 0
 mask_limit_6_0_1: m[6,0,1] = 0
 mask_limit_6_0_2: m[6,0,2] = 0
 mask_limit_6_0_3: m[6,0,3] = 0
 mask_limit_6_0_4: m[6,0,4] = 0
 mask_limit_6_0_5: m[6,0,5] = 0
 mask_limit_6_0_6: m[6,0,6] = 0
 mask_limit_6_0_7: m[6,0,7] = 0
 mask_limit_6_0_8: m[6,0,8] = 0
 mask_limit_6_0_9: m[6,0,9] = 0
 mask_limit_6_0_10: m[6,0,10] = 0
 mask_limit_6_0_11: m[6,0,11] = 0
 mask_limit_6_0_12: m[6,0,12] = 0
 mask_limit_6_0_13: m[6,0,13] = 0
 mask_limit_6_0_14: m[6,0,14] = 0
 mask_limit_6_0_15: m[6,0,15] = 0
 mask_limit_6_0_16: m[6,0,16] = 0
 mask_limit_6_0_17: m[6,0,17] = 0
 mask_limit_6_0_18: m[6,0,18] = 0
 mask_limit_6_0_19: m[6,0,19] = 0
 mask_limit_6_0_20: m[6,0,20] = 0
 mask_limit_6_0_21: m[6,0,21] = 0
 mask_limit_6_0_22: m[6,0,22] = 0
 mask_limit_6_0_23: m[6,0,23] = 0
 mask_limit_6_0_24: m[6,0,24] = 0
 mask_limit_6_0_25: m[6,0,25] = 0
 mask_limit_6_0_26: m[6,0,26] = 0
 mask_limit_6_0_27: m[6,0,27] = 0
 mask_limit_6_0_28: m[6,0,28] = 0
 mask_limit_6_0_29: m[6,0,29] = 0
 mask_limit_6_0_30: m[6,0,30] = 0
 mask_limit_6_0_31: m[6,0,31] = 0
 mask_limit_6_0_32: m[6,0,32] = 0
 mask_limit_6_0_33: m[6,0,33] = 0
 mask_limit_6_0_34: m[6,0,34] = 0
 mask_limit_6_0_35: m[6,0,35] = 0
 mask_limit_6_0_36: m[6,0,36] = 0
 mask_limit_6_0_37: m[6,0,37] = 0
 mask_limit_6_0_38: m[6,0,38] = 0
 mask_limit_6_0_39: m[6,0,39] = 0
 mask_limit_6_0_40: m[6,0,40] = 0
 mask_limit_6_0_41: m[6,0,41] = 0
 mask_limit_6_0_42: m[6,0,42] = 0
 mask_limit_6_0_43: m[6,0,43] = 0
 mask_limit_6_0_44: m[6,0,44] = 0
 mask_limit_6_0_45: m[6,0,45] = 0
 mask_limit_6_0_46: m[6,0,46] = 0
 mask_limit_6_0_47: m[6,0,47] = 0
 mask_limit_6_0_48: m[6,0,48] = 0
 mask_limit_6_0_49: m[6,0,49] = 0
 mask_limit_6_0_50: m[6,0,50] = 0
 mask_limit_6_0_51: m[6,0,51] = 0
 mask_limit_6_0_52: m[6,0,52] = 0
 mask_limit_6_0_53: m[6,0,53] = 0
 mask_limit_6_0_54: m[6,0,54] = 0
 mask_limit_6_0_55: m[6,0,55] = 0
 mask_limit_6_0_56: m[6,0,56] = 0
 mask_limit_6_0_57: m[6,0,57] = 0
 mask_limit_6_0_58: m[6,0,58] = 0
 mask_limit_6_0_59: m[6,0,59] = 0
 mask_limit_6_0_60: m[6,0,60] = 0
 mask_limit_6_0_61: m[6,0,61] = 0
 mask_limit_6_0_62: m[6,0,62] = 0
 mask_limit_6_0_63: m[6,0,63] = 0
 mask_limit_6_1_0: m[6,1,0] = 0
 mask_limit_6_1_1: m[6,1,1] = 0
 mask_limit_6_1_2: m[6,1,2] = 0
 mask_limit_6_1_3: m[6,1,3] = 0
 mask_limit_6_1_4: m[6,1,4] = 0
 mask_limit_6_1_5: m[6,1,5] = 0
 mask_limit_6_1_6: m[6,1,6] = 0
 mask_limit_6_1_7: m[6,1,7] = 0
 mask_limit_6_1_8: m[6,1,8] = 0
 mask_limit_6_1_9: m[6,1,9] = 0
 mask_limit_6_1_10: m[6,1,10] = 0
 mask_limit_6_1_11: m[6,1,11] = 0
 mask_limit_6_1_13: m[6,1,13] = 0
 mask_limit_6_1_14: m[6,1,14] = 0
 mask_limit_6_1_15: m[6,1,15] = 0
 mask_limit_6_1_16: m[6,1,16] = 0
 mask_limit_6_1_17: m[6,1,17] = 0
 mask_limit_6_1_18: m[6,1,18] = 0
 mask_limit_6_1_19: m[6,1,19] = 0
 mask_limit_6_1_20: m[6,1,20] = 0
 mask_limit_6_1_21: m[6,1,21] = 0
 mask_limit_6_1_22: m[6,1,22] = 0
 mask_limit_6_1_23: m[6,1,23] = 0
 mask_limit_6_1_24: m[6,1,24] = 0
 mask_limit_6_1_25: m[6,1,25] = 0
 mask_limit_6_1_26: m[6,1,26] = 0
 mask_limit_6_1_27: m[6,1,27] = 0
 mask_limit_6_1_28: m[6,1,28] = 0
 mask_limit_6_1_29: m[6,1,29] = 0
 mask_limit_6_1_30: m[6,1,30] = 0
 mask_limit_6_1_31: m[6,1,31] = 0
 mask_limit_6_1_32: m[6,1,32] = 0
 mask_limit_6_1_33: m[6,1,33] = 0
 mask_limit_6_1_34: m[6,1,34] = 0
 mask_limit_6_1_35: m[6,1,35] = 0
 mask_limit_6_1_36: m[6,1,36] = 0
 mask_limit_6_1_37: m[6,1,37] = 0
 mask_limit_6_1_38: m[6,1,38] = 0
 mask_limit_6_1_39: m[6,1,39] = 0
 mask_limit_6_1_40: m[6,1,40] = 0
 mask_limit_6_1_41: m[6,1,41] = 0
 mask_limit_6_1_42: m[6,1,42] = 0
 mask_limit_6_1_43: m[6,1,43] = 0
 mask_limit_6_1_44: m[6,1,44] = 0
 mask_limit_6_1_45: m[6,1,45] = 0
 mask_limit_6_1_46: m[6,1,46] = 0
 mask_limit_6_1_47: m[6,1,47] = 0
 mask_limit_6_1_48: m[6,1,48] = 0
 mask_limit_6_1_49: m[6,1,49] = 0
 mask_limit_6_1_50: m[6,1,50] = 0
 mask_limit_6_1_51: m[6,1,51] = 0
 mask_limit_6_1_52: m[6,1,52] = 0
 mask_limit_6_1_53: m[6,1,53] = 0
 mask_limit_6_1_54: m[6,1,54] = 0
 mask_limit_6_1_55: m[6,1,55] = 0
 mask_limit_6_1_56: m[6,1,56] = 0
 mask_limit_6_1_57: m[6,1,57] = 0
 mask_limit_6_1_58: m[6,1,58] = 0
 mask_limit_6_1_59: m[6,1,59] = 0
 mask_limit_6_1_60: m[6,1,60] = 0
 mask_limit_6_1_61: m[6,1,61] = 0
 mask_limit_6_1_62: m[6,1,62] = 0
 mask_limit_6_1_63: m[6,1,63] = 0
 mask_limit_7_0_0: m[7,0,0] = 0
 mask_limit_7_0_1: m[7,0,1] = 0
 mask_limit_7_0_2: m[7,0,2] = 0
 mask_limit_7_0_3: m[7,0,3] = 0
 mask_limit_7_0_4: m[7,0,4] = 0
 mask_limit_7_0_5: m[7,0,5] = 0
 mask_limit_7_0_6: m[7,0,6] = 0
 mask_limit_7_0_7: m[7,0,7] = 0
 mask_limit_7_0_8: m[7,0,8] = 0
 mask_limit_7_0_9: m[7,0,9] = 0
 mask_limit_7_0_10: m[7,0,10] = 0
 mask_limit_7_0_11: m[7,0,11] = 0
 mask_limit_7_0_13: m[7,0,13] = 0
 mask_limit_7_0_14: m[7,0,14] = 0
 mask_limit_7_0_15: m[7,0,15] = 0
 mask_limit_7_0_16: m[7,0,16] = 0
 mask_limit_7_0_17: m[7,0,17] = 0
 mask_limit_7_0_18: m[7,0,18] = 0
 mask_limit_7_0_19: m[7,0,19] = 0
 mask_limit_7_0_20: m[7,0,20] = 0
 mask_limit_7_0_21: m[7,0,21] = 0
 mask_limit_7_0_22: m[7,0,22] = 0
 mask_limit_7_0_23: m[7,0,23] = 0
 mask_limit_7_0_24: m[7,0,24] = 0
 mask_limit_7_0_25: m[7,0,25] = 0
 mask_limit_7_0_26: m[7,0,26] = 0
 mask_limit_7_0_27: m[7,0,27] = 0
 mask_limit_7_0_28: m[7,0,28] = 0
 mask_limit_7_0_29: m[7,0,29] = 0
 mask_limit_7_0_30: m[7,0,30] = 0
 mask_limit_7_0_31: m[7,0,31] = 0
 mask_limit_7_0_32: m[7,0,32] = 0
 mask_limit_7_0_33: m[7,0,33] = 0
 mask_limit_7_0_34: m[7,0,34] = 0
 mask_limit_7_0_35: m[7,0,35] = 0
 mask_limit_7_0_36: m[7,0,36] = 0
 mask_limit_7_0_37: m[7,0,37] = 0
 mask_limit_7_0_38: m[7,0,38] = 0
 mask_limit_7_0_39: m[7,0,39] = 0
 mask_limit_7_0_40: m[7,0,40] = 0
 mask_limit_7_0_41: m[7,0,41] = 0
 mask_limit_7_0_42: m[7,0,42] = 0
 mask_limit_7_0_43: m[7,0,43] = 0
 mask_limit_7_0_44: m[7,0,44] = 0
 mask_limit_7_0_45: m[7,0,45] = 0
 mask_limit_7_0_46: m[7,0,46] = 0
 mask_limit_7_0_47: m[7,0,47] = 0
 mask_limit_7_0_48: m[7,0,48] = 0
 mask_limit_7_0_49: m[7,0,49] = 0
 mask_limit_7_0_50: m[7,0,50] = 0
 mask_limit_7_0_51: m[7,0,51] = 0
 mask_limit_7_0_52: m[7,0,52] = 0
 mask_limit_7_0_53: m[7,0,53] = 0
 mask_limit_7_0_54: m[7,0,54] = 0
 mask_limit_7_0_55: m[7,0,55] = 0
 mask_limit_7_0_56: m[7,0,56] = 0
 mask_limit_7_0_57: m[7,0,57] = 0
 mask_limit_7_0_58: m[7,0,58] = 0
 mask_limit_7_0_59: m[7,0,59] = 0
 mask_limit_7_0_60: m[7,0,60] = 0
 mask_limit_7_0_61: m[7,0,61] = 0
 mask_limit_7_0_62: m[7,0,62] = 0
 mask_limit_7_0_63: m[7,0,63] = 0
 mask_limit_7_1_0: m[7,1,0] = 0
 mask_limit_7_1_1: m[7,1,1] = 0
 mask_limit_7_1_2: m[7,1,2] = 0
 mask_limit_7_1_3: m[7,1,3] = 0
 mask_limit_7_1_4: m[7,1,4] = 0
 mask_limit_7_1_5: m[7,1,5] = 0
 mask_limit_7_1_6: m[7,1,6] = 0
 mask_limit_7_1_7: m[7,1,7] = 0
 mask_limit_7_1_8: m[7,1,8] = 0
 mask_limit_7_1_9: m[7,1,9] = 0
 mask_limit_7_1_10: m[7,1,10] = 0
 mask_limit_7_1_11: m[7,1,11] = 0
 mask_limit_7_1_12: m[7,1,12] = 0
 mask_limit_7_1_13: m[7,1,13] = 0
 mask_limit_7_1_14: m[7,1,14] = 0
 mask_limit_7_1_16: m[7,1,16] = 0
 mask_limit_7_1_17: m[7,1,17] = 0
 mask_limit_7_1_18: m[7,1,18] = 0
 mask_limit_7_1_19: m[7,1,19] = 0
 mask_limit_7_1_20: m[7,1,20] = 0
 mask_limit_7_1_21: m[7,1,21] = 0
 mask_limit_7_1_22: m[7,1,22] = 0
 mask_limit_7_1_23: m[7,1,23] = 0
 mask_limit_7_1_24: m[7,1,24] = 0
 mask_limit_7_1_25: m[7,1,25] = 0
 mask_limit_7_1_26: m[7,1,26] = 0
 mask_limit_7_1_27: m[7,1,27] = 0
 mask_limit_7_1_28: m[7,1,28] = 0
 mask_limit_7_1_29: m[7,1,29] = 0
 mask_limit_7_1_30: m[7,1,30] = 0
 mask_limit_7_1_31: m[7,1,31] = 0
 mask_limit_7_1_32: m[7,1,32] = 0
 mask_limit_7_1_33: m[7,1,33] = 0
 mask_limit_7_1_34: m[7,1,34] = 0
 mask_limit_7_1_35: m[7,1,35] = 0
 mask_limit_7_1_36: m[7,1,36] = 0
 mask_limit_7_1_37: m[7,1,37] = 0
 mask_limit_7_1_38: m[7,1,38] = 0
 mask_limit_7_1_39: m[7,1,39] = 0
 mask_limit_7_1_40: m[7,1,40] = 0
 mask_limit_7_1_41: m[7,1,41] = 0
 mask_limit_7_1_42: m[7,1,42] = 0
 mask_limit_7_1_43: m[7,1,43] = 0
 mask_limit_7_1_44: m[7,1,44] = 0
 mask_limit_7_1_45: m[7,1,45] = 0
 mask_limit_7_1_46: m[7,1,46] = 0
 mask_limit_7_1_47: m[7,1,47] = 0
 mask_limit_7_1_48: m[7,1,48] = 0
 mask_limit_7_1_49: m[7,1,49] = 0
 mask_limit_7_1_50: m[7,1,50] = 0
 mask_limit_7_1_51: m[7,1,51] = 0
 mask_limit_7_1_52: m[7,1,52] = 0
 mask_limit_7_1_53: m[7,1,53] = 0
 mask_limit_7_1_54: m[7,1,54] = 0
 mask_limit_7_1_55: m[7,1,55] = 0
 mask_limit_7_1_56: m[7,1,56] = 0
 mask_limit_7_1_57: m[7,1,57] = 0
 mask_limit_7_1_58: m[7,1,58] = 0
 mask_limit_7_1_59: m[7,1,59] = 0
 mask_limit_7_1_60: m[7,1,60] = 0
 mask_limit_7_1_61: m[7,1,61] = 0
 mask_limit_7_1_62: m[7,1,62] = 0
 mask_limit_7_1_63: m[7,1,63] = 0
 mask_limit_8_0_0: m[8,0,0] = 0
 mask_limit_8_0_1: m[8,0,1] = 0
 mask_limit_8_0_2: m[8,0,2] = 0
 mask_limit_8_0_4: m[8,0,4] = 0
 mask_limit_8_0_5: m[8,0,5] = 0
 mask_limit_8_0_6: m[8,0,6] = 0
 mask_limit_8_0_7: m[8,0,7] = 0
 mask_limit_8_0_8: m[8,0,8] = 0
 mask_limit_8_0_9: m[8,0,9] = 0
 mask_limit_8_0_10: m[8,0,10] = 0
 mask_limit_8_0_11: m[8,0,11] = 0
 mask_limit_8_0_12: m[8,0,12] = 0
 mask_limit_8_0_13: m[8,0,13] = 0
 mask_limit_8_0_14: m[8,0,14] = 0
 mask_limit_8_0_15: m[8,0,15] = 0
 mask_limit_8_0_16: m[8,0,16] = 0
 mask_limit_8_0_17: m[8,0,17] = 0
 mask_limit_8_0_18: m[8,0,18] = 0
 mask_limit_8_0_19: m[8,0,19] = 0
 mask_limit_8_0_20: m[8,0,20] = 0
 mask_limit_8_0_21: m[8,0,21] = 0
 mask_limit_8_0_22: m[8,0,22] = 0
 mask_limit_8_0_23: m[8,0,23] = 0
 mask_limit_8_0_24: m[8,0,24] = 0
 mask_limit_8_0_25: m[8,0,25] = 0
 mask_limit_8_0_26: m[8,0,26] = 0
 mask_limit_8_0_27: m[8,0,27] = 0
 mask_limit_8_0_28: m[8,0,28] = 0
 mask_limit_8_0_29: m[8,0,29] = 0
 mask_limit_8_0_30: m[8,0,30] = 0
 mask_limit_8_0_31: m[8,0,31] = 0
 mask_limit_8_0_32: m[8,0,32] = 0
 mask_limit_8_0_33: m[8,0,33] = 0
 mask_limit_8_0_34: m[8,0,34] = 0
 mask_limit_8_0_35: m[8,0,35] = 0
 mask_limit_8_0_36: m[8,0,36] = 0
 mask_limit_8_0_37: m[8,0,37] = 0
 mask_limit_8_0_38: m[8,0,38] = 0
 mask_limit_8_0_39: m[8,0,39] = 0
 mask_limit_8_0_40: m[8,0,40] = 0
 mask_limit_8_0_41: m[8,0,41] = 0
 mask_limit_8_0_42: m[8,0,42] = 0
 mask_limit_8_0_43: m[8,0,43] = 0
 mask_limit_8_0_44: m[8,0,44] = 0
 mask_limit_8_0_45: m[8,0,45] = 0
 mask_limit_8_0_46: m[8,0,46] = 0
 mask_limit_8_0_47: m[8,0,47] = 0
 mask_limit_8_0_48: m[8,0,48] = 0
 mask_limit_8_0_49: m[8,0,49] = 0
 mask_limit_8_0_50: m[8,0,50] = 0
 mask_limit_8_0_51: m[8,0,51] = 0
 mask_limit_8_0_52: m[8,0,52] = 0
 mask_limit_8_0_53: m[8,0,53] = 0
 mask_limit_8_0_54: m[8,0,54] = 0
 mask_limit_8_0_55: m[8,0,55] = 0
 mask_limit_8_0_56: m[8,0,56] = 0
 mask_limit_8_0_57: m[8,0,57] = 0
 mask_limit_8_0_58: m[8,0,58] = 0
 mask_limit_8_0_59: m[8,0,59] = 0
 mask_limit_8_0_60: m[8,0,60] = 0
 mask_limit_8_0_61: m[8,0,61] = 0
 mask_limit_8_0_62: m[8,0,62] = 0
 mask_limit_8_0_63: m[8,0,63] = 0
 mask_limit_8_1_0: m[8,1,0] = 0
 mask_limit_8_1_1: m[8,1,1] = 0
 mask_limit_8_1_2: m[8,1,2] = 0
 mask_limit_8_1_3: m[8,1,3] = 0
 mask_limit_8_1_4: m[8,1,4] = 0
 mask_limit_8_1_5: m[8,1,5] = 0
 mask_limit_8_1_6: m[8,1,6] = 0
 mask_limit_8_1_7: m[8,1,7] = 0
 mask_limit_8_1_8: m[8,1,8] = 0
 mask_limit_8_1_9: m[8,1,9] = 0
 mask_limit_8_1_10: m[8,1,10] = 0
 mask_limit_8_1_11: m[8,1,11] = 0
 mask_limit_8_1_12: m[8,1,12] = 0
 mask_limit_8_1_13: m[8,1,13] = 0
 mask_limit_8_1_14: m[8,1,14] = 0
 mask_limit_8_1_15: m[8,1,15] = 0
 mask_limit_8_1_16: m[8,1,16] = 0
 mask_limit_8_1_17: m[8,1,17] = 0
 mask_limit_8_1_18: m[8,1,18] = 0
 mask_limit_8_1_19: m[8,1,19] = 0
 mask_limit_8_1_20: m[8,1,20] = 0
 mask_limit_8_1_21: m[8,1,21] = 0
 mask_limit_8_1_22: m[8,1,22] = 0
 mask_limit_8_1_23: m[8,1,23] = 0
 mask_limit_8_1_24: m[8,1,24] = 0
 mask_limit_8_1_25: m[8,1,25] = 0
 mask_limit_8_1_26: m[8,1,26] = 0
 mask_limit_8_1_27: m[8,1,27] = 0
 mask_limit_8_1_28: m[8,1,28] = 0
 mask_limit_8_1_29: m[8,1,29] = 0
 mask_limit_8_1_30: m[8,1,30] = 0
 mask_limit_8_1_31: m[8,1,31] = 0
 mask_limit_8_1_32: m[8,1,32] = 0
 mask_limit_8_1_33: m[8,1,33] = 0
 mask_limit_8_1_34: m[8,1,34] = 0
 mask_limit_8_1_35: m[8,1,35] = 0
 mask_limit_8_1_36: m[8,1,36] = 0
 mask_limit_8_1_37: m[8,1,37] = 0
 mask_limit_8_1_38: m[8,1,38] = 0
 mask_limit_8_1_39: m[8,1,39] = 0
 mask_limit_8_1_40: m[8,1,40] = 0
 mask_limit_8_1_41: m[8,1,41] = 0
 mask_limit_8_1_42: m[8,1,42] = 0
 mask_limit_8_1_43: m[8,1,43] = 0
 mask_limit_8_1_44: m[8,1,44] = 0
 mask_limit_8_1_45: m[8,1,45] = 0
 mask_limit_8_1_46: m[8,1,46] = 0
 mask_limit_8_1_47: m[8,1,47] = 0
 mask_limit_8_1_48: m[8,1,48] = 0
 mask_limit_8_1_49: m[8,1,49] = 0
 mask_limit_8_1_50: m[8,1,50] = 0
 mask_limit_8_1_51: m[8,1,51] = 0
 mask_limit_8_1_52: m[8,1,52] = 0
 mask_limit_8_1_53: m[8,1,53] = 0
 mask_limit_8_1_54: m[8,1,54] = 0
 mask_limit_8_1_55: m[8,1,55] = 0
 mask_limit_8_1_56: m[8,1,56] = 0
 mask_limit_8_1_57: m[8,1,57] = 0
 mask_limit_8_1_58: m[8,1,58] = 0
 mask_limit_8_1_59: m[8,1,59] = 0
 mask_limit_8_1_60: m[8,1,60] = 0
 mask_limit_8_1_61: m[8,1,61] = 0
 mask_limit_8_1_62: m[8,1,62] = 0
 mask_limit_8_1_63: m[8,1,63] = 0
 mask_limit_9_0_0: m[9,0,0] = 0
 mask_limit_9_0_1: m[9,0,1] = 0
 mask_limit_9_0_2: m[9,0,2] = 0
 mask_limit_9_0_3: m[9,0,3] = 0
 mask_limit_9_0_4: m[9,0,4] = 0
 mask_limit_9_0_5: m[9,0,5] = 0
 mask_limit_9_0_6: m[9,0,6] = 0
 mask_limit_9_0_7: m[9,0,7] = 0
 mask_limit_9_0_8: m[9,0,8] = 0
 mask_limit_9_0_9: m[9,0,9] = 0
 mask_limit_9_0_10: m[9,0,10] = 0
 mask_limit_9_0_11: m[9,0,11] = 0
 mask_limit_9_0_12: m[9,0,12] = 0
 mask_limit_9_0_13: m[9,0,13] = 0
 mask_limit_9_0_14: m[9,0,14] = 0
 mask_limit_9_0_15: m[9,0,15] = 0
 mask_limit_9_0_16: m[9,0,16] = 0
 mask_limit_9_0_17: m[9,0,17] = 0
 mask_limit_9_0_18: m[9,0,18] = 0
 mask_limit_9_0_19: m[9,0,19] = 0
 mask_limit_9_0_20: m[9,0,20] = 0
 mask_limit_9_0_21: m[9,0,21] = 0
 mask_limit_9_0_22: m[9,0,22] = 0
 mask_limit_9_0_23: m[9,0,23] = 0
 mask_limit_9_0_24: m[9,0,24] = 0
 mask_limit_9_0_25: m[9,0,25] = 0
 mask_limit_9_0_26: m[9,0,26] = 0
 mask_limit_9_0_27: m[9,0,27] = 0
 mask_limit_9_0_28: m[9,0,28] = 0
 mask_limit_9_0_29: m[9,0,29] = 0
 mask_limit_9_0_30: m[9,0,30] = 0
 mask_limit_9_0_31: m[9,0,31] = 0
 mask_limit_9_0_32: m[9,0,32] = 0
 mask_limit_9_0_33: m[9,0,33] = 0
 mask_limit_9_0_34: m[9,0,34] = 0
 mask_limit_9_0_35: m[9,0,35] = 0
 mask_limit_9_0_36: m[9,0,36] = 0
 mask_limit_9_0_37: m[9,0,37] = 0
 mask_limit_9_0_38: m[9,0,38] = 0
 mask_limit_9_0_39: m[9,0,39] = 0
 mask_limit_9_0_40: m[9,0,40] = 0
 mask_limit_9_0_41: m[9,0,41] = 0
 mask_limit_9_0_42: m[9,0,42] = 0
 mask_limit_9_0_43: m[9,0,43] = 0
 mask_limit_9_0_44: m[9,0,44] = 0
 mask_limit_9_0_45: m[9,0,45] = 0
 mask_limit_9_0_46: m[9,0,46] = 0
 mask_limit_9_0_47: m[9,0,47] = 0
 mask_limit_9_0_48: m[9,0,48] = 0
 mask_limit_9_0_49: m[9,0,49] = 0
 mask_limit_9_0_50: m[9,0,50] = 0
 mask_limit_9_0_51: m[9,0,51] = 0
 mask_limit_9_0_52: m[9,0,52] = 0
 mask_limit_9_0_53: m[9,0,53] = 0
 mask_limit_9_0_54: m[9,0,54] = 0
 mask_limit_9_0_55: m[9,0,55] = 0
 mask_limit_9_0_56: m[9,0,56] = 0
 mask_limit_9_0_57: m[9,0,57] = 0
 mask_limit_9_0_58: m[9,0,58] = 0
 mask_limit_9_0_59: m[9,0,59] = 0
 mask_limit_9_0_60: m[9,0,60] = 0
 mask_limit_9_0_61: m[9,0,61] = 0
 mask_limit_9_0_62: m[9,0,62] = 0
 mask_limit_9_0_63: m[9,0,63] = 0
 mask_limit_9_1_0: m[9,1,0] = 0
 mask_limit_9_1_1: m[9,1,1] = 0
 mask_limit_9_1_2: m[9,1,2] = 0
 mask_limit_9_1_3: m[9,1,3] = 0
 mask_limit_9_1_4: m[9,1,4] = 0
 mask_limit_9_1_5: m[9,1,5] = 0
 mask_limit_9_1_6: m[9,1,6] = 0
 mask_limit_9_1_7: m[9,1,7] = 0
 mask_limit_9_1_8: m[9,1,8] = 0
 mask_limit_9_1_9: m[9,1,9] = 0
 mask_limit_9_1_10: m[9,1,10] = 0
 mask_limit_9_1_11: m[9,1,11] = 0
 mask_limit_9_1_12: m[9,1,12] = 0
 mask_limit_9_1_13: m[9,1,13] = 0
 mask_limit_9_1_14: m[9,1,14] = 0
 mask_limit_9_1_15: m[9,1,15] = 0
 mask_limit_9_1_16: m[9,1,16] = 0
 mask_limit_9_1_17: m[9,1,17] = 0
 mask_limit_9_1_18: m[9,1,18] = 0
 mask_limit_9_1_19: m[9,1,19] = 0
 mask_limit_9_1_20: m[9,1,20] = 0
 mask_limit_9_1_21: m[9,1,21] = 0
 mask_limit_9_1_22: m[9,1,22] = 0
 mask_limit_9_1_23: m[9,1,23] = 0
 mask_limit_9_1_24: m[9,1,24] = 0
 mask_limit_9_1_25: m[9,1,25] = 0
 mask_limit_9_1_26: m[9,1,26] = 0
 mask_limit_9_1_27: m[9,1,27] = 0
 mask_limit_9_1_28: m[9,1,28] = 0
 mask_limit_9_1_29: m[9,1,29] = 0
 mask_limit_9_1_30: m[9,1,30] = 0
 mask_limit_9_1_31: m[9,1,31] = 0
 mask_limit_9_1_32: m[9,1,32] = 0
 mask_limit_9_1_33: m[9,1,33] = 0
 mask_limit_9_1_34: m[9,1,34] = 0
 mask_limit_9_1_35: m[9,1,35] = 0
 mask_limit_9_1_36: m[9,1,36] = 0
 mask_limit_9_1_37: m[9,1,37] = 0
 mask_limit_9_1_38: m[9,1,38] = 0
 mask_limit_9_1_39: m[9,1,39] = 0
 mask_limit_9_1_40: m[9,1,40] = 0
 mask_limit_9_1_41: m[9,1,41] = 0
 mask_limit_9_1_42: m[9,1,42] = 0
 mask_limit_9_1_43: m[9,1,43] = 0
 mask_limit_9_1_44: m[9,1,44] = 0
 mask_limit_9_1_45: m[9,1,45] = 0
 mask_limit_9_1_46: m[9,1,46] = 0
 mask_limit_9_1_47: m[9,1,47] = 0
 mask_limit_9_1_48: m[9,1,48] = 0
 mask_limit_9_1_49: m[9,1,49] = 0
 mask_limit_9_1_50: m[9,1,50] = 0
 mask_limit_9_1_51: m[9,1,51] = 0
 mask_limit_9_1_52: m[9,1,52] = 0
 mask_limit_9_1_53: m[9,1,53] = 0
 mask_limit_9_1_54: m[9,1,54] = 0
 mask_limit_9_1_55: m[9,1,55] = 0
 mask_limit_9_1_56: m[9,1,56] = 0
 mask_limit_9_1_57: m[9,1,57] = 0
 mask_limit_9_1_58: m[9,1,58] = 0
 mask_limit_9_1_59: m[9,1,59] = 0
 mask_limit_9_1_60: m[9,1,60] = 0
 mask_limit_9_1_61: m[9,1,61] = 0
 mask_limit_9_1_62: m[9,1,62] = 0
 mask_limit_9_1_63: m[9,1,63] = 0
 mask_limit_10_0_0: m[10,0,0] = 0
 mask_limit_10_0_1: m[10,0,1] = 0
 mask_limit_10_0_2: m[10,0,2] = 0
 mask_limit_10_0_3: m[10,0,3] = 0
 mask_limit_10_0_4: m[10,0,4] = 0
 mask_limit_10_0_5: m[10,0,5] = 0
 mask_limit_10_0_6: m[10,0,6] = 0
 mask_limit_10_0_7: m[10,0,7] = 0
 mask_limit_10_0_8: m[10,0,8] = 0
 mask_limit_10_0_9: m[10,0,9] = 0
 mask_limit_10_0_10: m[10,0,10] = 0
 mask_limit_10_0_11: m[10,0,11] = 0
 mask_limit_10_0_12: m[10,0,12] = 0
 mask_limit_10_0_13: m[10,0,13] = 0
 mask_limit_10_0_14: m[10,0,14] = 0
 mask_limit_10_0_15: m[10,0,15] = 0
 mask_limit_10_0_16: m[10,0,16] = 0
 mask_limit_10_0_17: m[10,0,17] = 0
 mask_limit_10_0_18: m[10,0,18] = 0
 mask_limit_10_0_19: m[10,0,19] = 0
 mask_limit_10_0_20: m[10,0,20] = 0
 mask_limit_10_0_21: m[10,0,21] = 0
 mask_limit_10_0_22: m[10,0,22] = 0
 mask_limit_10_0_23: m[10,0,23] = 0
 mask_limit_10_0_24: m[10,0,24] = 0
 mask_limit_10_0_25: m[10,0,25] = 0
 mask_limit_10_0_26: m[10,0,26] = 0
 mask_limit_10_0_27: m[10,0,27] = 0
 mask_limit_10_0_28: m[10,0,28] = 0
 mask_limit_10_0_29: m[10,0,29] = 0
 mask_limit_10_0_30: m[10,0,30] = 0
 mask_limit_10_0_31: m[10,0,31] = 0
 mask_limit_10_0_32: m[10,0,32] = 0
 mask_limit_10_0_33: m[10,0,33] = 0
 mask_limit_10_0_34: m[10,0,34] = 0
 mask_limit_10_0_35: m[10,0,35] = 0
 mask_limit_10_0_36: m[10,0,36] = 0
 mask_limit_10_0_37: m[10,0,37] = 0
 mask_limit_10_0_38: m[10,0,38] = 0
 mask_limit_10_0_39: m[10,0,39] = 0
 mask_limit_10_0_40: m[10,0,40] = 0
 mask_limit_10_0_41: m[10,0,41] = 0
 mask_limit_10_0_42: m[10,0,42] = 0
 mask_limit_10_0_43: m[10,0,43] = 0
 mask_limit_10_0_44: m[10,0,44] = 0
 mask_limit_10_0_45: m[10,0,45] = 0
 mask_limit_10_0_46: m[10,0,46] = 0
 mask_limit_10_0_47: m[10,0,47] = 0
 mask_limit_10_0_48: m[10,0,48] = 0
 mask_limit_10_0_49: m[10,0,49] = 0
 mask_limit_10_0_50: m[10,0,50] = 0
 mask_limit_10_0_51: m[10,0,51] = 0
 mask_limit_10_0_52: m[10,0,52] = 0
 mask_limit_10_0_53: m[10,0,53] = 0
 mask_limit_10_0_54: m[10,0,54] = 0
 mask_limit_10_0_55: m[10,0,55] = 0
 mask_limit_10_0_56: m[10,0,56] = 0
 mask_limit_10_0_57: m[10,0,57] = 0
 mask_limit_10_0_58: m[10,0,58] = 0
 mask_limit_10_0_59: m[10,0,59] = 0
 mask_limit_10_0_60: m[10,0,60] = 0
 mask_limit_10_0_61: m[10,0,61] = 0
 mask_limit_10_0_62: m[10,0,62] = 0
 mask_limit_10_0_63: m[10,0,63] = 0
 mask_limit_10_1_0: m[10,1,0] = 0
 mask_limit_10_1_1: m[10,1,1] = 0
 mask_limit_10_1_2: m[10,1,2] = 0
 mask_limit_10_1_3: m[10,1,3] = 0
 mask_limit_10_1_4: m[10,1,4] = 0
 mask_limit_10_1_5: m[10,1,5] = 0
 mask_limit_10_1_6: m[10,1,6] = 0
 mask_limit_10_1_7: m[10,1,7] = 0
 mask_limit_10_1_8: m[10,1,8] = 0
 mask_limit_10_1_9: m[10,1,9] = 0
 mask_limit_10_1_10: m[10,1,10] = 0
 mask_limit_10_1_11: m[10,1,11] = 0
 mask_limit_10_1_12: m[10,1,12] = 0
 mask_limit_10_1_13: m[10,1,13] = 0
 mask_limit_10_1_14: m[10,1,14] = 0
 mask_limit_10_1_15: m[10,1,15] = 0
 mask_limit_10_1_16: m[10,1,16] = 0
 mask_limit_10_1_17: m[10,1,17] = 0
 mask_limit_10_1_18: m[10,1,18] = 0
 mask_limit_10_1_19: m[10,1,19] = 0
 mask_limit_10_1_20: m[10,1,20] = 0
 mask_limit_10_1_21: m[10,1,21] = 0
 mask_limit_10_1_22: m[10,1,22] = 0
 mask_limit_10_1_23: m[10,1,23] = 0
 mask_limit_10_1_24: m[10,1,24] = 0
 mask_limit_10_1_25: m[10,1,25] = 0
 mask_limit_10_1_26: m[10,1,26] = 0
 mask_limit_10_1_27: m[10,1,27] = 0
 mask_limit_10_1_28: m[10,1,28] = 0
 mask_limit_10_1_29: m[10,1,29] = 0
 mask_limit_10_1_30: m[10,1,30] = 0
 mask_limit_10_1_31: m[10,1,31] = 0
 mask_limit_10_1_32: m[10,1,32] = 0
 mask_limit_10_1_33: m[10,1,33] = 0
 mask_limit_10_1_34: m[10,1,34] = 0
 mask_limit_10_1_35: m[10,1,35] = 0
 mask_limit_10_1_36: m[10,1,36] = 0
 mask_limit_10_1_37: m[10,1,37] = 0
 mask_limit_10_1_38: m[10,1,38] = 0
 mask_limit_10_1_39: m[10,1,39] = 0
 mask_limit_10_1_40: m[10,1,40] = 0
 mask_limit_10_1_41: m[10,1,41] = 0
 mask_limit_10_1_42: m[10,1,42] = 0
 mask_limit_10_1_43: m[10,1,43] = 0
 mask_limit_10_1_44: m[10,1,44] = 0
 mask_limit_10_1_45: m[10,1,45] = 0
 mask_limit_10_1_46: m[10,1,46] = 0
 mask_limit_10_1_47: m[10,1,47] = 0
 mask_limit_10_1_48: m[10,1,48] = 0
 mask_limit_10_1_49: m[10,1,49] = 0
 mask_limit_10_1_50: m[10,1,50] = 0
 mask_limit_10_1_51: m[10,1,51] = 0
 mask_limit_10_1_52: m[10,1,52] = 0
 mask_limit_10_1_53: m[10,1,53] = 0
 mask_limit_10_1_54: m[10,1,54] = 0
 mask_limit_10_1_55: m[10,1,55] = 0
 mask_limit_10_1_56: m[10,1,56] = 0
 mask_limit_10_1_57: m[10,1,57] = 0
 mask_limit_10_1_58: m[10,1,58] = 0
 mask_limit_10_1_59: m[10,1,59] = 0
 mask_limit_10_1_60: m[10,1,60] = 0
 mask_limit_10_1_61: m[10,1,61] = 0
 mask_limit_10_1_62: m[10,1,62] = 0
 mask_limit_10_1_63: m[10,1,63] = 0
 mask_limit_11_0_0: m[11,0,0] = 0
 mask_limit_11_0_1: m[11,0,1] = 0
 mask_limit_11_0_2: m[11,0,2] = 0
 mask_limit_11_0_3: m[11,0,3] = 0
 mask_limit_11_0_4: m[11,0,4] = 0
 mask_limit_11_0_5: m[11,0,5] = 0
 mask_limit_11_0_6: m[11,0,6] = 0
 mask_limit_11_0_7: m[11,0,7] = 0
 mask_limit_11_0_8: m[11,0,8] = 0
 mask_limit_11_0_9: m[11,0,9] = 0
 mask_limit_11_0_10: m[11,0,10] = 0
 mask_limit_11_0_11: m[11,0,11] = 0
 mask_limit_11_0_12: m[11,0,12] = 0
 mask_limit_11_0_13: m[11,0,13] = 0
 mask_limit_11_0_14: m[11,0,14] = 0
 mask_limit_11_0_15: m[11,0,15] = 0
 mask_limit_11_0_16: m[11,0,16] = 0
 mask_limit_11_0_17: m[11,0,17] = 0
 mask_limit_11_0_18: m[11,0,18] = 0
 mask_limit_11_0_19: m[11,0,19] = 0
 mask_limit_11_0_20: m[11,0,20] = 0
 mask_limit_11_0_21: m[11,0,21] = 0
 mask_limit_11_0_22: m[11,0,22] = 0
 mask_limit_11_0_23: m[11,0,23] = 0
 mask_limit_11_0_24: m[11,0,24] = 0
 mask_limit_11_0_25: m[11,0,25] = 0
 mask_limit_11_0_26: m[11,0,26] = 0
 mask_limit_11_0_27: m[11,0,27] = 0
 mask_limit_11_0_28: m[11,0,28] = 0
 mask_limit_11_0_29: m[11,0,29] = 0
 mask_limit_11_0_30: m[11,0,30] = 0
 mask_limit_11_0_31: m[11,0,31] = 0
 mask_limit_11_0_32: m[11,0,32] = 0
 mask_limit_11_0_33: m[11,0,33] = 0
 mask_limit_11_0_34: m[11,0,34] = 0
 mask_limit_11_0_35: m[11,0,35] = 0
 mask_limit_11_0_36: m[11,0,36] = 0
 mask_limit_11_0_37: m[11,0,37] = 0
 mask_limit_11_0_38: m[11,0,38] = 0
 mask_limit_11_0_39: m[11,0,39] = 0
 mask_limit_11_0_40: m[11,0,40] = 0
 mask_limit_11_0_41: m[11,0,41] = 0
 mask_limit_11_0_42: m[11,0,42] = 0
 mask_limit_11_0_43: m[11,0,43] = 0
 mask_limit_11_0_44: m[11,0,44] = 0
 mask_limit_11_0_45: m[11,0,45] = 0
 mask_limit_11_0_46: m[11,0,46] = 0
 mask_limit_11_0_47: m[11,0,47] = 0
 mask_limit_11_0_48: m[11,0,48] = 0
 mask_limit_11_0_49: m[11,0,49] = 0
 mask_limit_11_0_50: m[11,0,50] = 0
 mask_limit_11_0_51: m[11,0,51] = 0
 mask_limit_11_0_52: m[11,0,52] = 0
 mask_limit_11_0_53: m[11,0,53] = 0
 mask_limit_11_0_54: m[11,0,54] = 0
 mask_limit_11_0_55: m[11,0,55] = 0
 mask_limit_11_0_56: m[11,0,56] = 0
 mask_limit_11_0_57: m[11,0,57] = 0
 mask_limit_11_0_58: m[11,0,58] = 0
 mask_limit_11_0_59: m[11,0,59] = 0
 mask_limit_11_0_60: m[11,0,60] = 0
 mask_limit_11_0_61: m[11,0,61] = 0
 mask_limit_11_0_62: m[11,0,62] = 0
 mask_limit_11_0_63: m[11,0,63] = 0
 mask_limit_11_1_0: m[11,1,0] = 0
 mask_limit_11_1_1: m[11,1,1] = 0
 mask_limit_11_1_2: m[11,1,2] = 0
 mask_limit_11_1_3: m[11,1,3] = 0
 mask_limit_11_1_4: m[11,1,4] = 0
 mask_limit_11_1_5: m[11,1,5] = 0
 mask_limit_11_1_6: m[11,1,6] = 0
 mask_limit_11_1_7: m[11,1,7] = 0
 mask_limit_11_1_8: m[11,1,8] = 0
 mask_limit_11_1_9: m[11,1,9] = 0
 mask_limit_11_1_10: m[11,1,10] = 0
 mask_limit_11_1_11: m[11,1,11] = 0
 mask_limit_11_1_12: m[11,1,12] = 0
 mask_limit_11_1_13: m[11,1,13] = 0
 mask_limit_11_1_14: m[11,1,14] = 0
 mask_limit_11_1_15: m[11,1,15] = 0
 mask_limit_11_1_16: m[11,1,16] = 0
 mask_limit_11_1_17: m[11,1,17] = 0
 mask_limit_11_1_18: m[11,1,18] = 0
 mask_limit_11_1_19: m[11,1,19] = 0
 mask_limit_11_1_20: m[11,1,20] = 0
 mask_limit_11_1_21: m[11,1,21] = 0
 mask_limit_11_1_22: m[11,1,22] = 0
 mask_limit_11_1_23: m[11,1,23] = 0
 mask_limit_11_1_24: m[11,1,24] = 0
 mask_limit_11_1_25: m[11,1,25] = 0
 mask_limit_11_1_26: m[11,1,26] = 0
 mask_limit_11_1_27: m[11,1,27] = 0
 mask_limit_11_1_28: m[11,1,28] = 0
 mask_limit_11_1_29: m[11,1,29] = 0
 mask_limit_11_1_30: m[11,1,30] = 0
 mask_limit_11_1_31: m[11,1,31] = 0
 mask_limit_11_1_32: m[11,1,32] = 0
 mask_limit_11_1_33: m[11,1,33] = 0
 mask_limit_11_1_34: m[11,1,34] = 0
 mask_limit_11_1_35: m[11,1,35] = 0
 mask_limit_11_1_36: m[11,1,36] = 0
 mask_limit_11_1_37: m[11,1,37] = 0
 mask_limit_11_1_38: m[11,1,38] = 0
 mask_limit_11_1_39: m[11,1,39] = 0
 mask_limit_11_1_40: m[11,1,40] = 0
 mask_limit_11_1_41: m[11,1,41] = 0
 mask_limit_11_1_42: m[11,1,42] = 0
 mask_limit_11_1_43: m[11,1,43] = 0
 mask_limit_11_1_44: m[11,1,44] = 0
 mask_limit_11_1_45: m[11,1,45] = 0
 mask_limit_11_1_46: m[11,1,46] = 0
 mask_limit_11_1_47: m[11,1,47] = 0
 mask_limit_11_1_48: m[11,1,48] = 0
 mask_limit_11_1_49: m[11,1,49] = 0
 mask_limit_11_1_50: m[11,1,50] = 0
 mask_limit_11_1_51: m[11,1,51] = 0
 mask_limit_11_1_52: m[11,1,52] = 0
 mask_limit_11_1_53: m[11,1,53] = 0
 mask_limit_11_1_54: m[11,1,54] = 0
 mask_limit_11_1_55: m[11,1,55] = 0
 mask_limit_11_1_56: m[11,1,56] = 0
 mask_limit_11_1_57: m[11,1,57] = 0
 mask_limit_11_1_58: m[11,1,58] = 0
 mask_limit_11_1_59: m[11,1,59] = 0
 mask_limit_11_1_60: m[11,1,60] = 0
 mask_limit_11_1_61: m[11,1,61] = 0
 mask_limit_11_1_62: m[11,1,62] = 0
 mask_limit_11_1_63: m[11,1,63] = 0
 mask_limit_12_0_0: m[12,0,0] = 0
 mask_limit_12_0_1: m[12,0,1] = 0
 mask_limit_12_0_2: m[12,0,2] = 0
 mask_limit_12_0_3: m[12,0,3] = 0
 mask_limit_12_0_4: m[12,0,4] = 0
 mask_limit_12_0_5: m[12,0,5] = 0
 mask_limit_12_0_6: m[12,0,6] = 0
 mask_limit_12_0_7: m[12,0,7] = 0
 mask_limit_12_0_8: m[12,0,8] = 0
 mask_limit_12_0_9: m[12,0,9] = 0
 mask_limit_12_0_10: m[12,0,10] = 0
 mask_limit_12_0_11: m[12,0,11] = 0
 mask_limit_12_0_12: m[12,0,12] = 0
 mask_limit_12_0_13: m[12,0,13] = 0
 mask_limit_12_0_14: m[12,0,14] = 0
 mask_limit_12_0_15: m[12,0,15] = 0
 mask_limit_12_0_16: m[12,0,16] = 0
 mask_limit_12_0_17: m[12,0,17] = 0
 mask_limit_12_0_18: m[12,0,18] = 0
 mask_limit_12_0_19: m[12,0,19] = 0
 mask_limit_12_0_20: m[12,0,20] = 0
 mask_limit_12_0_21: m[12,0,21] = 0
 mask_limit_12_0_22: m[12,0,22] = 0
 mask_limit_12_0_23: m[12,0,23] = 0
 mask_limit_12_0_24: m[12,0,24] = 0
 mask_limit_12_0_25: m[12,0,25] = 0
 mask_limit_12_0_26: m[12,0,26] = 0
 mask_limit_12_0_27: m[12,0,27] = 0
 mask_limit_12_0_28: m[12,0,28] = 0
 mask_limit_12_0_29: m[12,0,29] = 0
 mask_limit_12_0_30: m[12,0,30] = 0
 mask_limit_12_0_31: m[12,0,31] = 0
 mask_limit_12_0_32: m[12,0,32] = 0
 mask_limit_12_0_33: m[12,0,33] = 0
 mask_limit_12_0_34: m[12,0,34] = 0
 mask_limit_12_0_35: m[12,0,35] = 0
 mask_limit_12_0_36: m[12,0,36] = 0
 mask_limit_12_0_37: m[12,0,37] = 0
 mask_limit_12_0_38: m[12,0,38] = 0
 mask_limit_12_0_39: m[12,0,39] = 0
 mask_limit_12_0_40: m[12,0,40] = 0
 mask_limit_12_0_41: m[12,0,41] = 0
 mask_limit_12_0_42: m[12,0,42] = 0
 mask_limit_12_0_43: m[12,0,43] = 0
 mask_limit_12_0_44: m[12,0,44] = 0
 mask_limit_12_0_45: m[12,0,45] = 0
 mask_limit_12_0_46: m[12,0,46] = 0
 mask_limit_12_0_47: m[12,0,47] = 0
 mask_limit_12_0_48: m[12,0,48] = 0
 mask_limit_12_0_49: m[12,0,49] = 0
 mask_limit_12_0_50: m[12,0,50] = 0
 mask_limit_12_0_51: m[12,0,51] = 0
 mask_limit_12_0_52: m[12,0,52] = 0
 mask_limit_12_0_53: m[12,0,53] = 0
 mask_limit_12_0_54: m[12,0,54] = 0
 mask_limit_12_0_55: m[12,0,55] = 0
 mask_limit_12_0_56: m[12,0,56] = 0
 mask_limit_12_0_57: m[12,0,57] = 0
 mask_limit_12_0_58: m[12,0,58] = 0
 mask_limit_12_0_59: m[12,0,59] = 0
 mask_limit_12_0_60: m[12,0,60] = 0
 mask_limit_12_0_61: m[12,0,61] = 0
 mask_limit_12_0_62: m[12,0,62] = 0
 mask_limit_12_0_63: m[12,0,63] = 0
 mask_limit_12_1_0: m[12,1,0] = 0
 mask_limit_12_1_1: m[12,1,1] = 0
 mask_limit_12_1_2: m[12,1,2] = 0
 mask_limit_12_1_3: m[12,1,3] = 0
 mask_limit_12_1_4: m[12,1,4] = 0
 mask_limit_12_1_5: m[12,1,5] = 0
 mask_limit_12_1_6: m[12,1,6] = 0
 mask_limit_12_1_7: m[12,1,7] = 0
 mask_limit_12_1_8: m[12,1,8] = 0
 mask_limit_12_1_9: m[12,1,9] = 0
 mask_limit_12_1_10: m[12,1,10] = 0
 mask_limit_12_1_11: m[12,1,11] = 0
 mask_limit_12_1_12: m[12,1,12] = 0
 mask_limit_12_1_13: m[12,1,13] = 0
 mask_limit_12_1_14: m[12,1,14] = 0
 mask_limit_12_1_15: m[12,1,15] = 0
 mask_limit_12_1_16: m[12,1,16] = 0
 mask_limit_12_1_17: m[12,1,17] = 0
 mask_limit_12_1_18: m[12,1,18] = 0
 mask_limit_12_1_19: m[12,1,19] = 0
 mask_limit_12_1_20: m[12,1,20] = 0
 mask_limit_12_1_21: m[12,1,21] = 0
 mask_limit_12_1_22: m[12,1,22] = 0
 mask_limit_12_1_23: m[12,1,23] = 0
 mask_limit_12_1_24: m[12,1,24] = 0
 mask_limit_12_1_25: m[12,1,25] = 0
 mask_limit_12_1_26: m[12,1,26] = 0
 mask_limit_12_1_27: m[12,1,27] = 0
 mask_limit_12_1_28: m[12,1,28] = 0
 mask_limit_12_1_29: m[12,1,29] = 0
 mask_limit_12_1_30: m[12,1,30] = 0
 mask_limit_12_1_31: m[12,1,31] = 0
 mask_limit_12_1_32: m[12,1,32] = 0
 mask_limit_12_1_33: m[12,1,33] = 0
 mask_limit_12_1_34: m[12,1,34] = 0
 mask_limit_12_1_35: m[12,1,35] = 0
 mask_limit_12_1_36: m[12,1,36] = 0
 mask_limit_12_1_37: m[12,1,37] = 0
 mask_limit_12_1_38: m[12,1,38] = 0
 mask_limit_12_1_39: m[12,1,39] = 0
 mask_limit_12_1_40: m[12,1,40] = 0
 mask_limit_12_1_41: m[12,1,41] = 0
 mask_limit_12_1_42: m[12,1,42] = 0
 mask_limit_12_1_43: m[12,1,43] = 0
 mask_limit_12_1_44: m[12,1,44] = 0
 mask_limit_12_1_45: m[12,1,45] = 0
 mask_limit_12_1_46: m[12,1,46] = 0
 mask_limit_12_1_47: m[12,1,47] = 0
 mask_limit_12_1_48: m[12,1,48] = 0
 mask_limit_12_1_49: m[12,1,49] = 0
 mask_limit_12_1_50: m[12,1,50] = 0
 mask_limit_12_1_51: m[12,1,51] = 0
 mask_limit_12_1_52: m[12,1,52] = 0
 mask_limit_12_1_53: m[12,1,53] = 0
 mask_limit_12_1_54: m[12,1,54] = 0
 mask_limit_12_1_55: m[12,1,55] = 0
 mask_limit_12_1_56: m[12,1,56] = 0
 mask_limit_12_1_57: m[12,1,57] = 0
 mask_limit_12_1_58: m[12,1,58] = 0
 mask_limit_12_1_59: m[12,1,59] = 0
 mask_limit_12_1_60: m[12,1,60] = 0
 mask_limit_12_1_61: m[12,1,61] = 0
 mask_limit_12_1_62: m[12,1,62] = 0
 mask_limit_12_1_63: m[12,1,63] = 0
 mask_limit_13_0_0: m[13,0,0] = 0
 mask_limit_13_0_1: m[13,0,1] = 0
 mask_limit_13_0_2: m[13,0,2] = 0
 mask_limit_13_0_3: m[13,0,3] = 0
 mask_limit_13_0_4: m[13,0,4] = 0
 mask_limit_13_0_5: m[13,0,5] = 0
 mask_limit_13_0_6: m[13,0,6] = 0
 mask_limit_13_0_7: m[13,0,7] = 0
 mask_limit_13_0_8: m[13,0,8] = 0
 mask_limit_13_0_9: m[13,0,9] = 0
 mask_limit_13_0_10: m[13,0,10] = 0
 mask_limit_13_0_11: m[13,0,11] = 0
 mask_limit_13_0_12: m[13,0,12] = 0
 mask_limit_13_0_13: m[13,0,13] = 0
 mask_limit_13_0_14: m[13,0,14] = 0
 mask_limit_13_0_15: m[13,0,15] = 0
 mask_limit_13_0_16: m[13,0,16] = 0
 mask_limit_13_0_17: m[13,0,17] = 0
 mask_limit_13_0_18: m[13,0,18] = 0
 mask_limit_13_0_19: m[13,0,19] = 0
 mask_limit_13_0_20: m[13,0,20] = 0
 mask_limit_13_0_21: m[13,0,21] = 0
 mask_limit_13_0_22: m[13,0,22] = 0
 mask_limit_13_0_23: m[13,0,23] = 0
 mask_limit_13_0_24: m[13,0,24] = 0
 mask_limit_13_0_25: m[13,0,25] = 0
 mask_limit_13_0_26: m[13,0,26] = 0
 mask_limit_13_0_27: m[13,0,27] = 0
 mask_limit_13_0_28: m[13,0,28] = 0
 mask_limit_13_0_29: m[13,0,29] = 0
 mask_limit_13_0_30: m[13,0,30] = 0
 mask_limit_13_0_31: m[13,0,31] = 0
 mask_limit_13_0_32: m[13,0,32] = 0
 mask_limit_13_0_33: m[13,0,33] = 0
 mask_limit_13_0_34: m[13,0,34] = 0
 mask_limit_13_0_35: m[13,0,35] = 0
 mask_limit_13_0_36: m[13,0,36] = 0
 mask_limit_13_0_37: m[13,0,37] = 0
 mask_limit_13_0_38: m[13,0,38] = 0
 mask_limit_13_0_39: m[13,0,39] = 0
 mask_limit_13_0_40: m[13,0,40] = 0
 mask_limit_13_0_41: m[13,0,41] = 0
 mask_limit_13_0_42: m[13,0,42] = 0
 mask_limit_13_0_43: m[13,0,43] = 0
 mask_limit_13_0_44: m[13,0,44] = 0
 mask_limit_13_0_45: m[13,0,45] = 0
 mask_limit_13_0_46: m[13,0,46] = 0
 mask_limit_13_0_47: m[13,0,47] = 0
 mask_limit_13_0_48: m[13,0,48] = 0
 mask_limit_13_0_49: m[13,0,49] = 0
 mask_limit_13_0_50: m[13,0,50] = 0
 mask_limit_13_0_51: m[13,0,51] = 0
 mask_limit_13_0_52: m[13,0,52] = 0
 mask_limit_13_0_53: m[13,0,53] = 0
 mask_limit_13_0_54: m[13,0,54] = 0
 mask_limit_13_0_55: m[13,0,55] = 0
 mask_limit_13_0_56: m[13,0,56] = 0
 mask_limit_13_0_57: m[13,0,57] = 0
 mask_limit_13_0_58: m[13,0,58] = 0
 mask_limit_13_0_59: m[13,0,59] = 0
 mask_limit_13_0_60: m[13,0,60] = 0
 mask_limit_13_0_61: m[13,0,61] = 0
 mask_limit_13_0_62: m[13,0,62] = 0
 mask_limit_13_0_63: m[13,0,63] = 0
 mask_limit_13_1_0: m[13,1,0] = 0
 mask_limit_13_1_1: m[13,1,1] = 0
 mask_limit_13_1_2: m[13,1,2] = 0
 mask_limit_13_1_3: m[13,1,3] = 0
 mask_limit_13_1_4: m[13,1,4] = 0
 mask_limit_13_1_5: m[13,1,5] = 0
 mask_limit_13_1_6: m[13,1,6] = 0
 mask_limit_13_1_7: m[13,1,7] = 0
 mask_limit_13_1_8: m[13,1,8] = 0
 mask_limit_13_1_9: m[13,1,9] = 0
 mask_limit_13_1_10: m[13,1,10] = 0
 mask_limit_13_1_11: m[13,1,11] = 0
 mask_limit_13_1_12: m[13,1,12] = 0
 mask_limit_13_1_13: m[13,1,13] = 0
 mask_limit_13_1_14: m[13,1,14] = 0
 mask_limit_13_1_15: m[13,1,15] = 0
 mask_limit_13_1_16: m[13,1,16] = 0
 mask_limit_13_1_17: m[13,1,17] = 0
 mask_limit_13_1_18: m[13,1,18] = 0
 mask_limit_13_1_19: m[13,1,19] = 0
 mask_limit_13_1_20: m[13,1,20] = 0
 mask_limit_13_1_21: m[13,1,21] = 0
 mask_limit_13_1_22: m[13,1,22] = 0
 mask_limit_13_1_23: m[13,1,23] = 0
 mask_limit_13_1_24: m[13,1,24] = 0
 mask_limit_13_1_25: m[13,1,25] = 0
 mask_limit_13_1_26: m[13,1,26] = 0
 mask_limit_13_1_27: m[13,1,27] = 0
 mask_limit_13_1_28: m[13,1,28] = 0
 mask_limit_13_1_29: m[13,1,29] = 0
 mask_limit_13_1_30: m[13,1,30] = 0
 mask_limit_13_1_31: m[13,1,31] = 0
 mask_limit_13_1_32: m[13,1,32] = 0
 mask_limit_13_1_33: m[13,1,33] = 0
 mask_limit_13_1_34: m[13,1,34] = 0
 mask_limit_13_1_35: m[13,1,35] = 0
 mask_limit_13_1_36: m[13,1,36] = 0
 mask_limit_13_1_37: m[13,1,37] = 0
 mask_limit_13_1_38: m[13,1,38] = 0
 mask_limit_13_1_39: m[13,1,39] = 0
 mask_limit_13_1_40: m[13,1,40] = 0
 mask_limit_13_1_41: m[13,1,41] = 0
 mask_limit_13_1_42: m[13,1,42] = 0
 mask_limit_13_1_43: m[13,1,43] = 0
 mask_limit_13_1_44: m[13,1,44] = 0
 mask_limit_13_1_45: m[13,1,45] = 0
 mask_limit_13_1_46: m[13,1,46] = 0
 mask_limit_13_1_47: m[13,1,47] = 0
 mask_limit_13_1_48: m[13,1,48] = 0
 mask_limit_13_1_49: m[13,1,49] = 0
 mask_limit_13_1_50: m[13,1,50] = 0
 mask_limit_13_1_51: m[13,1,51] = 0
 mask_limit_13_1_52: m[13,1,52] = 0
 mask_limit_13_1_53: m[13,1,53] = 0
 mask_limit_13_1_54: m[13,1,54] = 0
 mask_limit_13_1_55: m[13,1,55] = 0
 mask_limit_13_1_56: m[13,1,56] = 0
 mask_limit_13_1_57: m[13,1,57] = 0
 mask_limit_13_1_58: m[13,1,58] = 0
 mask_limit_13_1_59: m[13,1,59] = 0
 mask_limit_13_1_60: m[13,1,60] = 0
 mask_limit_13_1_61: m[13,1,61] = 0
 mask_limit_13_1_62: m[13,1,62] = 0
 mask_limit_13_1_63: m[13,1,63] = 0
 R1916: c[0,0,0.0] + c[0,0,-3.0] + c[0,0,-2.0] + c[0,0,-1.41504]
   + c[0,0,-1.0] = 1
 R1917: - m[0,0,0] - m[0,0,1] - m[0,0,2] - m[0,0,3] - m[0,1,0] - m[0,1,1]
   - m[0,1,2] - m[0,1,3] - 50000 c[0,0,0.0] >= -50000
 R1918: c[0,0,-3.0] = 0
 R1919: - m[0,0,0] - m[0,0,3] - m[0,1,2] - m[0,1,3] - 50000 c[0,0,-2.0]
   >= -50003
 R1920: m[0,0,0] + 2 m[0,0,3] + m[0,1,3] - 50000 c[0,0,-2.0] >= -49998
 R1921: 3 m[0,0,0] + m[0,0,3] + 4 m[0,1,2] + 2 m[0,1,3] - 50000 c[0,0,-2.0]
   >= -49995
 R1922: c[0,0,-1.41504] = 0
 R1923: - 6649 m[0,0,0] + 3 m[0,0,1] - 7 m[0,0,2] + 4 m[0,0,3] - 5 m[0,1,0]
   - m[0,1,1] + 6639 m[0,1,2] - 6648 m[0,1,3] - 50000 c[0,0,-1.0]
   >= -56657
 R1924: 10 m[0,0,0] + 2 m[0,0,1] - 6641 m[0,0,2] - 6649 m[0,0,3] + m[0,1,0]
   + 3 m[0,1,1] - 6647 m[0,1,2] - 3 m[0,1,3] - 50000 c[0,0,-1.0] >= -63289
 R1925: 6 m[0,0,0] - m[0,0,1] - 2 m[0,0,2] + 4 m[0,0,3] - 2 m[0,1,1]
   + 5 m[0,1,2] + 4 m[0,1,3] - 50000 c[0,0,-1.0] >= -49999
 R1926: - 17 m[0,0,0] - 4 m[0,0,1] + 5 m[0,0,2] - m[0,0,3] + 4 m[0,1,0]
   + 2 m[0,1,1] + 13 m[0,1,2] - 10 m[0,1,3] - 50000 c[0,0,-1.0] >= -50015
 R1927: - 2 m[0,0,0] + 4 m[0,0,1] + 11 m[0,0,2] - 2 m[0,0,3] + 9 m[0,1,0]
   + 9 m[0,1,1] + 14 m[0,1,2] + 14 m[0,1,3] - 50000 c[0,0,-1.0] >= -49984
 R1928: 5 m[0,0,0] + 2 m[0,0,1] + 2 m[0,0,2] + 4 m[0,0,3] + 3 m[0,1,1]
   + m[0,1,3] - 50000 c[0,0,-1.0] >= -49995
 R1929: - 3324 m[0,0,0] + m[0,0,1] + 3324 m[0,0,3] + m[0,1,0]
   - 583 m[0,1,1] - 584 m[0,1,2] - 2740 m[0,1,3] - 50000 c[0,0,-1.0]
   >= -53907
 R1930: 15 m[0,0,0] - 2 m[0,0,1] + 3 m[0,0,2] - 10 m[0,0,3] - m[0,1,0]
   - 3 m[0,1,1] - 11 m[0,1,2] - 5 m[0,1,3] - 50000 c[0,0,-1.0] >= -50017
 R1931: - 5 m[0,0,0] - 2 m[0,0,1] + m[0,0,2] - 10 m[0,0,3] - 3 m[0,1,0]
   - 3 m[0,1,1] - 11 m[0,1,2] + 15 m[0,1,3] - 50000 c[0,0,-1.0] >= -50019
 R1932: c[0,1,0.0] + c[0,1,-3.0] + c[0,1,-2.0] + c[0,1,-1.41504]
   + c[0,1,-1.0] = 1
 R1933: - m[0,0,4] - m[0,0,5] - m[0,0,6] - m[0,0,7] - m[0,1,4] - m[0,1,5]
   - m[0,1,6] - m[0,1,7] - 50000 c[0,1,0.0] >= -50000
 R1934: c[0,1,-3.0] = 0
 R1935: - m[0,0,4] - m[0,0,7] - m[0,1,6] - m[0,1,7] - 50000 c[0,1,-2.0]
   >= -50003
 R1936: m[0,0,4] + 2 m[0,0,7] + m[0,1,7] - 50000 c[0,1,-2.0] >= -49998
 R1937: 3 m[0,0,4] + m[0,0,7] + 4 m[0,1,6] + 2 m[0,1,7] - 50000 c[0,1,-2.0]
   >= -49995
 R1938: c[0,1,-1.41504] = 0
 R1939: - 6649 m[0,0,4] + 3 m[0,0,5] - 7 m[0,0,6] + 4 m[0,0,7] - 5 m[0,1,4]
   - m[0,1,5] + 6639 m[0,1,6] - 6648 m[0,1,7] - 50000 c[0,1,-1.0]
   >= -56657
 R1940: 10 m[0,0,4] + 2 m[0,0,5] - 6641 m[0,0,6] - 6649 m[0,0,7] + m[0,1,4]
   + 3 m[0,1,5] - 6647 m[0,1,6] - 3 m[0,1,7] - 50000 c[0,1,-1.0] >= -63289
 R1941: 6 m[0,0,4] - m[0,0,5] - 2 m[0,0,6] + 4 m[0,0,7] - 2 m[0,1,5]
   + 5 m[0,1,6] + 4 m[0,1,7] - 50000 c[0,1,-1.0] >= -49999
 R1942: - 17 m[0,0,4] - 4 m[0,0,5] + 5 m[0,0,6] - m[0,0,7] + 4 m[0,1,4]
   + 2 m[0,1,5] + 13 m[0,1,6] - 10 m[0,1,7] - 50000 c[0,1,-1.0] >= -50015
 R1943: - 2 m[0,0,4] + 4 m[0,0,5] + 11 m[0,0,6] - 2 m[0,0,7] + 9 m[0,1,4]
   + 9 m[0,1,5] + 14 m[0,1,6] + 14 m[0,1,7] - 50000 c[0,1,-1.0] >= -49984
 R1944: 5 m[0,0,4] + 2 m[0,0,5] + 2 m[0,0,6] + 4 m[0,0,7] + 3 m[0,1,5]
   + m[0,1,7] - 50000 c[0,1,-1.0] >= -49995
 R1945: - 3324 m[0,0,4] + m[0,0,5] + 3324 m[0,0,7] + m[0,1,4]
   - 583 m[0,1,5] - 584 m[0,1,6] - 2740 m[0,1,7] - 50000 c[0,1,-1.0]
   >= -53907
 R1946: 15 m[0,0,4] - 2 m[0,0,5] + 3 m[0,0,6] - 10 m[0,0,7] - m[0,1,4]
   - 3 m[0,1,5] - 11 m[0,1,6] - 5 m[0,1,7] - 50000 c[0,1,-1.0] >= -50017
 R1947: - 5 m[0,0,4] - 2 m[0,0,5] + m[0,0,6] - 10 m[0,0,7] - 3 m[0,1,4]
   - 3 m[0,1,5] - 11 m[0,1,6] + 15 m[0,1,7] - 50000 c[0,1,-1.0] >= -50019
 R1948: c[0,2,0.0] + c[0,2,-3.0] + c[0,2,-2.0] + c[0,2,-1.41504]
   + c[0,2,-1.0] = 1
 R1949: - m[0,0,8] - m[0,0,9] - m[0,0,10] - m[0,0,11] - m[0,1,8] - m[0,1,9]
   - m[0,1,10] - m[0,1,11] - 50000 c[0,2,0.0] >= -50000
 R1950: c[0,2,-3.0] = 0
 R1951: - m[0,0,8] - m[0,0,11] - m[0,1,10] - m[0,1,11] - 50000 c[0,2,-2.0]
   >= -50003
 R1952: m[0,0,8] + 2 m[0,0,11] + m[0,1,11] - 50000 c[0,2,-2.0] >= -49998
 R1953: 3 m[0,0,8] + m[0,0,11] + 4 m[0,1,10] + 2 m[0,1,11]
   - 50000 c[0,2,-2.0] >= -49995
 R1954: c[0,2,-1.41504] = 0
 R1955: - 6649 m[0,0,8] + 3 m[0,0,9] - 7 m[0,0,10] + 4 m[0,0,11]
   - 5 m[0,1,8] - m[0,1,9] + 6639 m[0,1,10] - 6648 m[0,1,11]
   - 50000 c[0,2,-1.0] >= -56657
 R1956: 10 m[0,0,8] + 2 m[0,0,9] - 6641 m[0,0,10] - 6649 m[0,0,11]
   + m[0,1,8] + 3 m[0,1,9] - 6647 m[0,1,10] - 3 m[0,1,11]
   - 50000 c[0,2,-1.0] >= -63289
 R1957: 6 m[0,0,8] - m[0,0,9] - 2 m[0,0,10] + 4 m[0,0,11] - 2 m[0,1,9]
   + 5 m[0,1,10] + 4 m[0,1,11] - 50000 c[0,2,-1.0] >= -49999
 R1958: - 17 m[0,0,8] - 4 m[0,0,9] + 5 m[0,0,10] - m[0,0,11] + 4 m[0,1,8]
   + 2 m[0,1,9] + 13 m[0,1,10] - 10 m[0,1,11] - 50000 c[0,2,-1.0]
   >= -50015
 R1959: - 2 m[0,0,8] + 4 m[0,0,9] + 11 m[0,0,10] - 2 m[0,0,11] + 9 m[0,1,8]
   + 9 m[0,1,9] + 14 m[0,1,10] + 14 m[0,1,11] - 50000 c[0,2,-1.0]
   >= -49984
 R1960: 5 m[0,0,8] + 2 m[0,0,9] + 2 m[0,0,10] + 4 m[0,0,11] + 3 m[0,1,9]
   + m[0,1,11] - 50000 c[0,2,-1.0] >= -49995
 R1961: - 3324 m[0,0,8] + m[0,0,9] + 3324 m[0,0,11] + m[0,1,8]
   - 583 m[0,1,9] - 584 m[0,1,10] - 2740 m[0,1,11] - 50000 c[0,2,-1.0]
   >= -53907
 R1962: 15 m[0,0,8] - 2 m[0,0,9] + 3 m[0,0,10] - 10 m[0,0,11] - m[0,1,8]
   - 3 m[0,1,9] - 11 m[0,1,10] - 5 m[0,1,11] - 50000 c[0,2,-1.0] >= -50017
 R1963: - 5 m[0,0,8] - 2 m[0,0,9] + m[0,0,10] - 10 m[0,0,11] - 3 m[0,1,8]
   - 3 m[0,1,9] - 11 m[0,1,10] + 15 m[0,1,11] - 50000 c[0,2,-1.0]
   >= -50019
 R1964: c[0,3,0.0] + c[0,3,-3.0] + c[0,3,-2.0] + c[0,3,-1.41504]
   + c[0,3,-1.0] = 1
 R1965: - m[0,0,12] - m[0,0,13] - m[0,0,14] - m[0,0,15] - m[0,1,12]
   - m[0,1,13] - m[0,1,14] - m[0,1,15] - 50000 c[0,3,0.0] >= -50000
 R1966: c[0,3,-3.0] = 0
 R1967: - m[0,0,12] - m[0,0,15] - m[0,1,14] - m[0,1,15] - 50000 c[0,3,-2.0]
   >= -50003
 R1968: m[0,0,12] + 2 m[0,0,15] + m[0,1,15] - 50000 c[0,3,-2.0] >= -49998
 R1969: 3 m[0,0,12] + m[0,0,15] + 4 m[0,1,14] + 2 m[0,1,15]
   - 50000 c[0,3,-2.0] >= -49995
 R1970: c[0,3,-1.41504] = 0
 R1971: - 6649 m[0,0,12] + 3 m[0,0,13] - 7 m[0,0,14] + 4 m[0,0,15]
   - 5 m[0,1,12] - m[0,1,13] + 6639 m[0,1,14] - 6648 m[0,1,15]
   - 50000 c[0,3,-1.0] >= -56657
 R1972: 10 m[0,0,12] + 2 m[0,0,13] - 6641 m[0,0,14] - 6649 m[0,0,15]
   + m[0,1,12] + 3 m[0,1,13] - 6647 m[0,1,14] - 3 m[0,1,15]
   - 50000 c[0,3,-1.0] >= -63289
 R1973: 6 m[0,0,12] - m[0,0,13] - 2 m[0,0,14] + 4 m[0,0,15] - 2 m[0,1,13]
   + 5 m[0,1,14] + 4 m[0,1,15] - 50000 c[0,3,-1.0] >= -49999
 R1974: - 17 m[0,0,12] - 4 m[0,0,13] + 5 m[0,0,14] - m[0,0,15]
   + 4 m[0,1,12] + 2 m[0,1,13] + 13 m[0,1,14] - 10 m[0,1,15]
   - 50000 c[0,3,-1.0] >= -50015
 R1975: - 2 m[0,0,12] + 4 m[0,0,13] + 11 m[0,0,14] - 2 m[0,0,15]
   + 9 m[0,1,12] + 9 m[0,1,13] + 14 m[0,1,14] + 14 m[0,1,15]
   - 50000 c[0,3,-1.0] >= -49984
 R1976: 5 m[0,0,12] + 2 m[0,0,13] + 2 m[0,0,14] + 4 m[0,0,15] + 3 m[0,1,13]
   + m[0,1,15] - 50000 c[0,3,-1.0] >= -49995
 R1977: - 3324 m[0,0,12] + m[0,0,13] + 3324 m[0,0,15] + m[0,1,12]
   - 583 m[0,1,13] - 584 m[0,1,14] - 2740 m[0,1,15] - 50000 c[0,3,-1.0]
   >= -53907
 R1978: 15 m[0,0,12] - 2 m[0,0,13] + 3 m[0,0,14] - 10 m[0,0,15] - m[0,1,12]
   - 3 m[0,1,13] - 11 m[0,1,14] - 5 m[0,1,15] - 50000 c[0,3,-1.0]
   >= -50017
 R1979: - 5 m[0,0,12] - 2 m[0,0,13] + m[0,0,14] - 10 m[0,0,15]
   - 3 m[0,1,12] - 3 m[0,1,13] - 11 m[0,1,14] + 15 m[0,1,15]
   - 50000 c[0,3,-1.0] >= -50019
 R1980: c[0,4,0.0] + c[0,4,-3.0] + c[0,4,-2.0] + c[0,4,-1.41504]
   + c[0,4,-1.0] = 1
 R1981: - m[0,0,16] - m[0,0,17] - m[0,0,18] - m[0,0,19] - m[0,1,16]
   - m[0,1,17] - m[0,1,18] - m[0,1,19] - 50000 c[0,4,0.0] >= -50000
 R1982: c[0,4,-3.0] = 0
 R1983: - m[0,0,16] - m[0,0,19] - m[0,1,18] - m[0,1,19] - 50000 c[0,4,-2.0]
   >= -50003
 R1984: m[0,0,16] + 2 m[0,0,19] + m[0,1,19] - 50000 c[0,4,-2.0] >= -49998
 R1985: 3 m[0,0,16] + m[0,0,19] + 4 m[0,1,18] + 2 m[0,1,19]
   - 50000 c[0,4,-2.0] >= -49995
 R1986: c[0,4,-1.41504] = 0
 R1987: - 6649 m[0,0,16] + 3 m[0,0,17] - 7 m[0,0,18] + 4 m[0,0,19]
   - 5 m[0,1,16] - m[0,1,17] + 6639 m[0,1,18] - 6648 m[0,1,19]
   - 50000 c[0,4,-1.0] >= -56657
 R1988: 10 m[0,0,16] + 2 m[0,0,17] - 6641 m[0,0,18] - 6649 m[0,0,19]
   + m[0,1,16] + 3 m[0,1,17] - 6647 m[0,1,18] - 3 m[0,1,19]
   - 50000 c[0,4,-1.0] >= -63289
 R1989: 6 m[0,0,16] - m[0,0,17] - 2 m[0,0,18] + 4 m[0,0,19] - 2 m[0,1,17]
   + 5 m[0,1,18] + 4 m[0,1,19] - 50000 c[0,4,-1.0] >= -49999
 R1990: - 17 m[0,0,16] - 4 m[0,0,17] + 5 m[0,0,18] - m[0,0,19]
   + 4 m[0,1,16] + 2 m[0,1,17] + 13 m[0,1,18] - 10 m[0,1,19]
   - 50000 c[0,4,-1.0] >= -50015
 R1991: - 2 m[0,0,16] + 4 m[0,0,17] + 11 m[0,0,18] - 2 m[0,0,19]
   + 9 m[0,1,16] + 9 m[0,1,17] + 14 m[0,1,18] + 14 m[0,1,19]
   - 50000 c[0,4,-1.0] >= -49984
 R1992: 5 m[0,0,16] + 2 m[0,0,17] + 2 m[0,0,18] + 4 m[0,0,19] + 3 m[0,1,17]
   + m[0,1,19] - 50000 c[0,4,-1.0] >= -49995
 R1993: - 3324 m[0,0,16] + m[0,0,17] + 3324 m[0,0,19] + m[0,1,16]
   - 583 m[0,1,17] - 584 m[0,1,18] - 2740 m[0,1,19] - 50000 c[0,4,-1.0]
   >= -53907
 R1994: 15 m[0,0,16] - 2 m[0,0,17] + 3 m[0,0,18] - 10 m[0,0,19] - m[0,1,16]
   - 3 m[0,1,17] - 11 m[0,1,18] - 5 m[0,1,19] - 50000 c[0,4,-1.0]
   >= -50017
 R1995: - 5 m[0,0,16] - 2 m[0,0,17] + m[0,0,18] - 10 m[0,0,19]
   - 3 m[0,1,16] - 3 m[0,1,17] - 11 m[0,1,18] + 15 m[0,1,19]
   - 50000 c[0,4,-1.0] >= -50019
 R1996: c[0,5,0.0] + c[0,5,-3.0] + c[0,5,-2.0] + c[0,5,-1.41504]
   + c[0,5,-1.0] = 1
 R1997: - m[0,0,20] - m[0,0,21] - m[0,0,22] - m[0,0,23] - m[0,1,20]
   - m[0,1,21] - m[0,1,22] - m[0,1,23] - 50000 c[0,5,0.0] >= -50000
 R1998: c[0,5,-3.0] = 0
 R1999: - m[0,0,20] - m[0,0,23] - m[0,1,22] - m[0,1,23] - 50000 c[0,5,-2.0]
   >= -50003
 R2000: m[0,0,20] + 2 m[0,0,23] + m[0,1,23] - 50000 c[0,5,-2.0] >= -49998
 R2001: 3 m[0,0,20] + m[0,0,23] + 4 m[0,1,22] + 2 m[0,1,23]
   - 50000 c[0,5,-2.0] >= -49995
 R2002: c[0,5,-1.41504] = 0
 R2003: - 6649 m[0,0,20] + 3 m[0,0,21] - 7 m[0,0,22] + 4 m[0,0,23]
   - 5 m[0,1,20] - m[0,1,21] + 6639 m[0,1,22] - 6648 m[0,1,23]
   - 50000 c[0,5,-1.0] >= -56657
 R2004: 10 m[0,0,20] + 2 m[0,0,21] - 6641 m[0,0,22] - 6649 m[0,0,23]
   + m[0,1,20] + 3 m[0,1,21] - 6647 m[0,1,22] - 3 m[0,1,23]
   - 50000 c[0,5,-1.0] >= -63289
 R2005: 6 m[0,0,20] - m[0,0,21] - 2 m[0,0,22] + 4 m[0,0,23] - 2 m[0,1,21]
   + 5 m[0,1,22] + 4 m[0,1,23] - 50000 c[0,5,-1.0] >= -49999
 R2006: - 17 m[0,0,20] - 4 m[0,0,21] + 5 m[0,0,22] - m[0,0,23]
   + 4 m[0,1,20] + 2 m[0,1,21] + 13 m[0,1,22] - 10 m[0,1,23]
   - 50000 c[0,5,-1.0] >= -50015
 R2007: - 2 m[0,0,20] + 4 m[0,0,21] + 11 m[0,0,22] - 2 m[0,0,23]
   + 9 m[0,1,20] + 9 m[0,1,21] + 14 m[0,1,22] + 14 m[0,1,23]
   - 50000 c[0,5,-1.0] >= -49984
 R2008: 5 m[0,0,20] + 2 m[0,0,21] + 2 m[0,0,22] + 4 m[0,0,23] + 3 m[0,1,21]
   + m[0,1,23] - 50000 c[0,5,-1.0] >= -49995
 R2009: - 3324 m[0,0,20] + m[0,0,21] + 3324 m[0,0,23] + m[0,1,20]
   - 583 m[0,1,21] - 584 m[0,1,22] - 2740 m[0,1,23] - 50000 c[0,5,-1.0]
   >= -53907
 R2010: 15 m[0,0,20] - 2 m[0,0,21] + 3 m[0,0,22] - 10 m[0,0,23] - m[0,1,20]
   - 3 m[0,1,21] - 11 m[0,1,22] - 5 m[0,1,23] - 50000 c[0,5,-1.0]
   >= -50017
 R2011: - 5 m[0,0,20] - 2 m[0,0,21] + m[0,0,22] - 10 m[0,0,23]
   - 3 m[0,1,20] - 3 m[0,1,21] - 11 m[0,1,22] + 15 m[0,1,23]
   - 50000 c[0,5,-1.0] >= -50019
 R2012: c[0,6,0.0] + c[0,6,-3.0] + c[0,6,-2.0] + c[0,6,-1.41504]
   + c[0,6,-1.0] = 1
 R2013: - m[0,0,24] - m[0,0,25] - m[0,0,26] - m[0,0,27] - m[0,1,24]
   - m[0,1,25] - m[0,1,26] - m[0,1,27] - 50000 c[0,6,0.0] >= -50000
 R2014: c[0,6,-3.0] = 0
 R2015: - m[0,0,24] - m[0,0,27] - m[0,1,26] - m[0,1,27] - 50000 c[0,6,-2.0]
   >= -50003
 R2016: m[0,0,24] + 2 m[0,0,27] + m[0,1,27] - 50000 c[0,6,-2.0] >= -49998
 R2017: 3 m[0,0,24] + m[0,0,27] + 4 m[0,1,26] + 2 m[0,1,27]
   - 50000 c[0,6,-2.0] >= -49995
 R2018: c[0,6,-1.41504] = 0
 R2019: - 6649 m[0,0,24] + 3 m[0,0,25] - 7 m[0,0,26] + 4 m[0,0,27]
   - 5 m[0,1,24] - m[0,1,25] + 6639 m[0,1,26] - 6648 m[0,1,27]
   - 50000 c[0,6,-1.0] >= -56657
 R2020: 10 m[0,0,24] + 2 m[0,0,25] - 6641 m[0,0,26] - 6649 m[0,0,27]
   + m[0,1,24] + 3 m[0,1,25] - 6647 m[0,1,26] - 3 m[0,1,27]
   - 50000 c[0,6,-1.0] >= -63289
 R2021: 6 m[0,0,24] - m[0,0,25] - 2 m[0,0,26] + 4 m[0,0,27] - 2 m[0,1,25]
   + 5 m[0,1,26] + 4 m[0,1,27] - 50000 c[0,6,-1.0] >= -49999
 R2022: - 17 m[0,0,24] - 4 m[0,0,25] + 5 m[0,0,26] - m[0,0,27]
   + 4 m[0,1,24] + 2 m[0,1,25] + 13 m[0,1,26] - 10 m[0,1,27]
   - 50000 c[0,6,-1.0] >= -50015
 R2023: - 2 m[0,0,24] + 4 m[0,0,25] + 11 m[0,0,26] - 2 m[0,0,27]
   + 9 m[0,1,24] + 9 m[0,1,25] + 14 m[0,1,26] + 14 m[0,1,27]
   - 50000 c[0,6,-1.0] >= -49984
 R2024: 5 m[0,0,24] + 2 m[0,0,25] + 2 m[0,0,26] + 4 m[0,0,27] + 3 m[0,1,25]
   + m[0,1,27] - 50000 c[0,6,-1.0] >= -49995
 R2025: - 3324 m[0,0,24] + m[0,0,25] + 3324 m[0,0,27] + m[0,1,24]
   - 583 m[0,1,25] - 584 m[0,1,26] - 2740 m[0,1,27] - 50000 c[0,6,-1.0]
   >= -53907
 R2026: 15 m[0,0,24] - 2 m[0,0,25] + 3 m[0,0,26] - 10 m[0,0,27] - m[0,1,24]
   - 3 m[0,1,25] - 11 m[0,1,26] - 5 m[0,1,27] - 50000 c[0,6,-1.0]
   >= -50017
 R2027: - 5 m[0,0,24] - 2 m[0,0,25] + m[0,0,26] - 10 m[0,0,27]
   - 3 m[0,1,24] - 3 m[0,1,25] - 11 m[0,1,26] + 15 m[0,1,27]
   - 50000 c[0,6,-1.0] >= -50019
 R2028: c[0,7,0.0] + c[0,7,-3.0] + c[0,7,-2.0] + c[0,7,-1.41504]
   + c[0,7,-1.0] = 1
 R2029: - m[0,0,28] - m[0,0,29] - m[0,0,30] - m[0,0,31] - m[0,1,28]
   - m[0,1,29] - m[0,1,30] - m[0,1,31] - 50000 c[0,7,0.0] >= -50000
 R2030: c[0,7,-3.0] = 0
 R2031: - m[0,0,28] - m[0,0,31] - m[0,1,30] - m[0,1,31] - 50000 c[0,7,-2.0]
   >= -50003
 R2032: m[0,0,28] + 2 m[0,0,31] + m[0,1,31] - 50000 c[0,7,-2.0] >= -49998
 R2033: 3 m[0,0,28] + m[0,0,31] + 4 m[0,1,30] + 2 m[0,1,31]
   - 50000 c[0,7,-2.0] >= -49995
 R2034: c[0,7,-1.41504] = 0
 R2035: - 6649 m[0,0,28] + 3 m[0,0,29] - 7 m[0,0,30] + 4 m[0,0,31]
   - 5 m[0,1,28] - m[0,1,29] + 6639 m[0,1,30] - 6648 m[0,1,31]
   - 50000 c[0,7,-1.0] >= -56657
 R2036: 10 m[0,0,28] + 2 m[0,0,29] - 6641 m[0,0,30] - 6649 m[0,0,31]
   + m[0,1,28] + 3 m[0,1,29] - 6647 m[0,1,30] - 3 m[0,1,31]
   - 50000 c[0,7,-1.0] >= -63289
 R2037: 6 m[0,0,28] - m[0,0,29] - 2 m[0,0,30] + 4 m[0,0,31] - 2 m[0,1,29]
   + 5 m[0,1,30] + 4 m[0,1,31] - 50000 c[0,7,-1.0] >= -49999
 R2038: - 17 m[0,0,28] - 4 m[0,0,29] + 5 m[0,0,30] - m[0,0,31]
   + 4 m[0,1,28] + 2 m[0,1,29] + 13 m[0,1,30] - 10 m[0,1,31]
   - 50000 c[0,7,-1.0] >= -50015
 R2039: - 2 m[0,0,28] + 4 m[0,0,29] + 11 m[0,0,30] - 2 m[0,0,31]
   + 9 m[0,1,28] + 9 m[0,1,29] + 14 m[0,1,30] + 14 m[0,1,31]
   - 50000 c[0,7,-1.0] >= -49984
 R2040: 5 m[0,0,28] + 2 m[0,0,29] + 2 m[0,0,30] + 4 m[0,0,31] + 3 m[0,1,29]
   + m[0,1,31] - 50000 c[0,7,-1.0] >= -49995
 R2041: - 3324 m[0,0,28] + m[0,0,29] + 3324 m[0,0,31] + m[0,1,28]
   - 583 m[0,1,29] - 584 m[0,1,30] - 2740 m[0,1,31] - 50000 c[0,7,-1.0]
   >= -53907
 R2042: 15 m[0,0,28] - 2 m[0,0,29] + 3 m[0,0,30] - 10 m[0,0,31] - m[0,1,28]
   - 3 m[0,1,29] - 11 m[0,1,30] - 5 m[0,1,31] - 50000 c[0,7,-1.0]
   >= -50017
 R2043: - 5 m[0,0,28] - 2 m[0,0,29] + m[0,0,30] - 10 m[0,0,31]
   - 3 m[0,1,28] - 3 m[0,1,29] - 11 m[0,1,30] + 15 m[0,1,31]
   - 50000 c[0,7,-1.0] >= -50019
 R2044: c[0,8,0.0] + c[0,8,-3.0] + c[0,8,-2.0] + c[0,8,-1.41504]
   + c[0,8,-1.0] = 1
 R2045: c[0,8,0.0] = 0
 R2046: c[0,8,-3.0] = 0
 R2047: - 5 m[0,0,33] + 4 m[0,0,34] - m[0,1,32] + 4 m[0,1,33] - m[0,1,34]
   + m[0,1,35] - 50000 c[0,8,-2.0] >= -50002
 R2048: 7978 m[0,0,33] + m[0,0,34] + 7979 m[0,1,32] + m[0,1,33]
   - 7979 m[0,1,34] + 7979 m[0,1,35] - 50000 c[0,8,-2.0] >= -50000
 R2049: m[0,0,33] - m[0,1,32] + m[0,1,34] + m[0,1,35] - 50000 c[0,8,-2.0]
   >= -50000
 R2050: - 5 m[0,0,33] - 4 m[0,0,34] + m[0,1,32] - 4 m[0,1,33] + m[0,1,34]
   + m[0,1,35] - 50000 c[0,8,-2.0] >= -50008
 R2051: - m[0,0,33] - m[0,1,32] + m[0,1,34] - m[0,1,35] - 50000 c[0,8,-2.0]
   >= -50002
 R2052: 5 m[0,0,33] + 4 m[0,0,34] + m[0,1,32] - 4 m[0,1,33] + m[0,1,34]
   - m[0,1,35] - 50000 c[0,8,-2.0] >= -50000
 R2053: 5 m[0,0,33] - 4 m[0,0,34] - m[0,1,32] + 4 m[0,1,33] - m[0,1,34]
   - m[0,1,35] - 50000 c[0,8,-2.0] >= -50002
 R2054: - 5 m[0,0,33] + 4 m[0,0,34] + m[0,1,32] + 4 m[0,1,33] - m[0,1,34]
   - m[0,1,35] - 50000 c[0,8,-2.0] >= -50002
 R2055: c[0,8,-1.41504] = 0
 R2056: c[0,8,-1.0] = 0
 R2057: c[0,9,0.0] + c[0,9,-3.0] + c[0,9,-2.0] + c[0,9,-1.41504]
   + c[0,9,-1.0] = 1
 R2058: - m[0,0,36] - m[0,0,37] - m[0,0,38] - m[0,0,39] - m[0,1,36]
   - m[0,1,37] - m[0,1,38] - m[0,1,39] - 50000 c[0,9,0.0] >= -50000
 R2059: c[0,9,-3.0] = 0
 R2060: - m[0,0,36] - m[0,0,39] - m[0,1,38] - m[0,1,39] - 50000 c[0,9,-2.0]
   >= -50003
 R2061: m[0,0,36] + 2 m[0,0,39] + m[0,1,39] - 50000 c[0,9,-2.0] >= -49998
 R2062: 3 m[0,0,36] + m[0,0,39] + 4 m[0,1,38] + 2 m[0,1,39]
   - 50000 c[0,9,-2.0] >= -49995
 R2063: c[0,9,-1.41504] = 0
 R2064: - 6649 m[0,0,36] + 3 m[0,0,37] - 7 m[0,0,38] + 4 m[0,0,39]
   - 5 m[0,1,36] - m[0,1,37] + 6639 m[0,1,38] - 6648 m[0,1,39]
   - 50000 c[0,9,-1.0] >= -56657
 R2065: 10 m[0,0,36] + 2 m[0,0,37] - 6641 m[0,0,38] - 6649 m[0,0,39]
   + m[0,1,36] + 3 m[0,1,37] - 6647 m[0,1,38] - 3 m[0,1,39]
   - 50000 c[0,9,-1.0] >= -63289
 R2066: 6 m[0,0,36] - m[0,0,37] - 2 m[0,0,38] + 4 m[0,0,39] - 2 m[0,1,37]
   + 5 m[0,1,38] + 4 m[0,1,39] - 50000 c[0,9,-1.0] >= -49999
 R2067: - 17 m[0,0,36] - 4 m[0,0,37] + 5 m[0,0,38] - m[0,0,39]
   + 4 m[0,1,36] + 2 m[0,1,37] + 13 m[0,1,38] - 10 m[0,1,39]
   - 50000 c[0,9,-1.0] >= -50015
 R2068: - 2 m[0,0,36] + 4 m[0,0,37] + 11 m[0,0,38] - 2 m[0,0,39]
   + 9 m[0,1,36] + 9 m[0,1,37] + 14 m[0,1,38] + 14 m[0,1,39]
   - 50000 c[0,9,-1.0] >= -49984
 R2069: 5 m[0,0,36] + 2 m[0,0,37] + 2 m[0,0,38] + 4 m[0,0,39] + 3 m[0,1,37]
   + m[0,1,39] - 50000 c[0,9,-1.0] >= -49995
 R2070: - 3324 m[0,0,36] + m[0,0,37] + 3324 m[0,0,39] + m[0,1,36]
   - 583 m[0,1,37] - 584 m[0,1,38] - 2740 m[0,1,39] - 50000 c[0,9,-1.0]
   >= -53907
 R2071: 15 m[0,0,36] - 2 m[0,0,37] + 3 m[0,0,38] - 10 m[0,0,39] - m[0,1,36]
   - 3 m[0,1,37] - 11 m[0,1,38] - 5 m[0,1,39] - 50000 c[0,9,-1.0]
   >= -50017
 R2072: - 5 m[0,0,36] - 2 m[0,0,37] + m[0,0,38] - 10 m[0,0,39]
   - 3 m[0,1,36] - 3 m[0,1,37] - 11 m[0,1,38] + 15 m[0,1,39]
   - 50000 c[0,9,-1.0] >= -50019
 R2073: c[0,10,0.0] + c[0,10,-3.0] + c[0,10,-2.0] + c[0,10,-1.41504]
   + c[0,10,-1.0] = 1
 R2074: - m[0,0,40] - m[0,0,41] - m[0,0,42] - m[0,0,43] - m[0,1,40]
   - m[0,1,41] - m[0,1,42] - m[0,1,43] - 50000 c[0,10,0.0] >= -50000
 R2075: c[0,10,-3.0] = 0
 R2076: - m[0,0,40] - m[0,0,43] - m[0,1,42] - m[0,1,43]
   - 50000 c[0,10,-2.0] >= -50003
 R2077: m[0,0,40] + 2 m[0,0,43] + m[0,1,43] - 50000 c[0,10,-2.0] >= -49998
 R2078: 3 m[0,0,40] + m[0,0,43] + 4 m[0,1,42] + 2 m[0,1,43]
   - 50000 c[0,10,-2.0] >= -49995
 R2079: c[0,10,-1.41504] = 0
 R2080: - 6649 m[0,0,40] + 3 m[0,0,41] - 7 m[0,0,42] + 4 m[0,0,43]
   - 5 m[0,1,40] - m[0,1,41] + 6639 m[0,1,42] - 6648 m[0,1,43]
   - 50000 c[0,10,-1.0] >= -56657
 R2081: 10 m[0,0,40] + 2 m[0,0,41] - 6641 m[0,0,42] - 6649 m[0,0,43]
   + m[0,1,40] + 3 m[0,1,41] - 6647 m[0,1,42] - 3 m[0,1,43]
   - 50000 c[0,10,-1.0] >= -63289
 R2082: 6 m[0,0,40] - m[0,0,41] - 2 m[0,0,42] + 4 m[0,0,43] - 2 m[0,1,41]
   + 5 m[0,1,42] + 4 m[0,1,43] - 50000 c[0,10,-1.0] >= -49999
 R2083: - 17 m[0,0,40] - 4 m[0,0,41] + 5 m[0,0,42] - m[0,0,43]
   + 4 m[0,1,40] + 2 m[0,1,41] + 13 m[0,1,42] - 10 m[0,1,43]
   - 50000 c[0,10,-1.0] >= -50015
 R2084: - 2 m[0,0,40] + 4 m[0,0,41] + 11 m[0,0,42] - 2 m[0,0,43]
   + 9 m[0,1,40] + 9 m[0,1,41] + 14 m[0,1,42] + 14 m[0,1,43]
   - 50000 c[0,10,-1.0] >= -49984
 R2085: 5 m[0,0,40] + 2 m[0,0,41] + 2 m[0,0,42] + 4 m[0,0,43] + 3 m[0,1,41]
   + m[0,1,43] - 50000 c[0,10,-1.0] >= -49995
 R2086: - 3324 m[0,0,40] + m[0,0,41] + 3324 m[0,0,43] + m[0,1,40]
   - 583 m[0,1,41] - 584 m[0,1,42] - 2740 m[0,1,43] - 50000 c[0,10,-1.0]
   >= -53907
 R2087: 15 m[0,0,40] - 2 m[0,0,41] + 3 m[0,0,42] - 10 m[0,0,43] - m[0,1,40]
   - 3 m[0,1,41] - 11 m[0,1,42] - 5 m[0,1,43] - 50000 c[0,10,-1.0]
   >= -50017
 R2088: - 5 m[0,0,40] - 2 m[0,0,41] + m[0,0,42] - 10 m[0,0,43]
   - 3 m[0,1,40] - 3 m[0,1,41] - 11 m[0,1,42] + 15 m[0,1,43]
   - 50000 c[0,10,-1.0] >= -50019
 R2089: c[0,11,0.0] + c[0,11,-3.0] + c[0,11,-2.0] + c[0,11,-1.41504]
   + c[0,11,-1.0] = 1
 R2090: - m[0,0,44] - m[0,0,45] - m[0,0,46] - m[0,0,47] - m[0,1,44]
   - m[0,1,45] - m[0,1,46] - m[0,1,47] - 50000 c[0,11,0.0] >= -50000
 R2091: c[0,11,-3.0] = 0
 R2092: - m[0,0,44] - m[0,0,47] - m[0,1,46] - m[0,1,47]
   - 50000 c[0,11,-2.0] >= -50003
 R2093: m[0,0,44] + 2 m[0,0,47] + m[0,1,47] - 50000 c[0,11,-2.0] >= -49998
 R2094: 3 m[0,0,44] + m[0,0,47] + 4 m[0,1,46] + 2 m[0,1,47]
   - 50000 c[0,11,-2.0] >= -49995
 R2095: c[0,11,-1.41504] = 0
 R2096: - 6649 m[0,0,44] + 3 m[0,0,45] - 7 m[0,0,46] + 4 m[0,0,47]
   - 5 m[0,1,44] - m[0,1,45] + 6639 m[0,1,46] - 6648 m[0,1,47]
   - 50000 c[0,11,-1.0] >= -56657
 R2097: 10 m[0,0,44] + 2 m[0,0,45] - 6641 m[0,0,46] - 6649 m[0,0,47]
   + m[0,1,44] + 3 m[0,1,45] - 6647 m[0,1,46] - 3 m[0,1,47]
   - 50000 c[0,11,-1.0] >= -63289
 R2098: 6 m[0,0,44] - m[0,0,45] - 2 m[0,0,46] + 4 m[0,0,47] - 2 m[0,1,45]
   + 5 m[0,1,46] + 4 m[0,1,47] - 50000 c[0,11,-1.0] >= -49999
 R2099: - 17 m[0,0,44] - 4 m[0,0,45] + 5 m[0,0,46] - m[0,0,47]
   + 4 m[0,1,44] + 2 m[0,1,45] + 13 m[0,1,46] - 10 m[0,1,47]
   - 50000 c[0,11,-1.0] >= -50015
 R2100: - 2 m[0,0,44] + 4 m[0,0,45] + 11 m[0,0,46] - 2 m[0,0,47]
   + 9 m[0,1,44] + 9 m[0,1,45] + 14 m[0,1,46] + 14 m[0,1,47]
   - 50000 c[0,11,-1.0] >= -49984
 R2101: 5 m[0,0,44] + 2 m[0,0,45] + 2 m[0,0,46] + 4 m[0,0,47] + 3 m[0,1,45]
   + m[0,1,47] - 50000 c[0,11,-1.0] >= -49995
 R2102: - 3324 m[0,0,44] + m[0,0,45] + 3324 m[0,0,47] + m[0,1,44]
   - 583 m[0,1,45] - 584 m[0,1,46] - 2740 m[0,1,47] - 50000 c[0,11,-1.0]
   >= -53907
 R2103: 15 m[0,0,44] - 2 m[0,0,45] + 3 m[0,0,46] - 10 m[0,0,47] - m[0,1,44]
   - 3 m[0,1,45] - 11 m[0,1,46] - 5 m[0,1,47] - 50000 c[0,11,-1.0]
   >= -50017
 R2104: - 5 m[0,0,44] - 2 m[0,0,45] + m[0,0,46] - 10 m[0,0,47]
   - 3 m[0,1,44] - 3 m[0,1,45] - 11 m[0,1,46] + 15 m[0,1,47]
   - 50000 c[0,11,-1.0] >= -50019
 R2105: c[0,12,0.0] + c[0,12,-3.0] + c[0,12,-2.0] + c[0,12,-1.41504]
   + c[0,12,-1.0] = 1
 R2106: - m[0,0,48] - m[0,0,49] - m[0,0,50] - m[0,0,51] - m[0,1,48]
   - m[0,1,49] - m[0,1,50] - m[0,1,51] - 50000 c[0,12,0.0] >= -50000
 R2107: c[0,12,-3.0] = 0
 R2108: - m[0,0,48] - m[0,0,51] - m[0,1,50] - m[0,1,51]
   - 50000 c[0,12,-2.0] >= -50003
 R2109: m[0,0,48] + 2 m[0,0,51] + m[0,1,51] - 50000 c[0,12,-2.0] >= -49998
 R2110: 3 m[0,0,48] + m[0,0,51] + 4 m[0,1,50] + 2 m[0,1,51]
   - 50000 c[0,12,-2.0] >= -49995
 R2111: c[0,12,-1.41504] = 0
 R2112: - 6649 m[0,0,48] + 3 m[0,0,49] - 7 m[0,0,50] + 4 m[0,0,51]
   - 5 m[0,1,48] - m[0,1,49] + 6639 m[0,1,50] - 6648 m[0,1,51]
   - 50000 c[0,12,-1.0] >= -56657
 R2113: 10 m[0,0,48] + 2 m[0,0,49] - 6641 m[0,0,50] - 6649 m[0,0,51]
   + m[0,1,48] + 3 m[0,1,49] - 6647 m[0,1,50] - 3 m[0,1,51]
   - 50000 c[0,12,-1.0] >= -63289
 R2114: 6 m[0,0,48] - m[0,0,49] - 2 m[0,0,50] + 4 m[0,0,51] - 2 m[0,1,49]
   + 5 m[0,1,50] + 4 m[0,1,51] - 50000 c[0,12,-1.0] >= -49999
 R2115: - 17 m[0,0,48] - 4 m[0,0,49] + 5 m[0,0,50] - m[0,0,51]
   + 4 m[0,1,48] + 2 m[0,1,49] + 13 m[0,1,50] - 10 m[0,1,51]
   - 50000 c[0,12,-1.0] >= -50015
 R2116: - 2 m[0,0,48] + 4 m[0,0,49] + 11 m[0,0,50] - 2 m[0,0,51]
   + 9 m[0,1,48] + 9 m[0,1,49] + 14 m[0,1,50] + 14 m[0,1,51]
   - 50000 c[0,12,-1.0] >= -49984
 R2117: 5 m[0,0,48] + 2 m[0,0,49] + 2 m[0,0,50] + 4 m[0,0,51] + 3 m[0,1,49]
   + m[0,1,51] - 50000 c[0,12,-1.0] >= -49995
 R2118: - 3324 m[0,0,48] + m[0,0,49] + 3324 m[0,0,51] + m[0,1,48]
   - 583 m[0,1,49] - 584 m[0,1,50] - 2740 m[0,1,51] - 50000 c[0,12,-1.0]
   >= -53907
 R2119: 15 m[0,0,48] - 2 m[0,0,49] + 3 m[0,0,50] - 10 m[0,0,51] - m[0,1,48]
   - 3 m[0,1,49] - 11 m[0,1,50] - 5 m[0,1,51] - 50000 c[0,12,-1.0]
   >= -50017
 R2120: - 5 m[0,0,48] - 2 m[0,0,49] + m[0,0,50] - 10 m[0,0,51]
   - 3 m[0,1,48] - 3 m[0,1,49] - 11 m[0,1,50] + 15 m[0,1,51]
   - 50000 c[0,12,-1.0] >= -50019
 R2121: c[0,13,0.0] + c[0,13,-3.0] + c[0,13,-2.0] + c[0,13,-1.41504]
   + c[0,13,-1.0] = 1
 R2122: c[0,13,0.0] = 0
 R2123: - m[0,0,53] - m[0,1,53] - m[0,1,54] - 50000 c[0,13,-3.0] >= -50002
 R2124: m[0,0,53] + m[0,1,53] - m[0,1,54] - 50000 c[0,13,-3.0] >= -50000
 R2125: m[0,0,53] - m[0,1,53] + m[0,1,54] - 50000 c[0,13,-3.0] >= -50000
 R2126: - m[0,0,53] + m[0,1,53] + m[0,1,54] - 50000 c[0,13,-3.0] >= -50000
 R2127: c[0,13,-2.0] = 0
 R2128: c[0,13,-1.41504] = 0
 R2129: c[0,13,-1.0] = 0
 R2130: c[0,14,0.0] + c[0,14,-3.0] + c[0,14,-2.0] + c[0,14,-1.41504]
   + c[0,14,-1.0] = 1
 R2131: - m[0,0,56] - m[0,0,57] - m[0,0,58] - m[0,0,59] - m[0,1,56]
   - m[0,1,57] - m[0,1,58] - m[0,1,59] - 50000 c[0,14,0.0] >= -50000
 R2132: c[0,14,-3.0] = 0
 R2133: - m[0,0,56] - m[0,0,59] - m[0,1,58] - m[0,1,59]
   - 50000 c[0,14,-2.0] >= -50003
 R2134: m[0,0,56] + 2 m[0,0,59] + m[0,1,59] - 50000 c[0,14,-2.0] >= -49998
 R2135: 3 m[0,0,56] + m[0,0,59] + 4 m[0,1,58] + 2 m[0,1,59]
   - 50000 c[0,14,-2.0] >= -49995
 R2136: c[0,14,-1.41504] = 0
 R2137: - 6649 m[0,0,56] + 3 m[0,0,57] - 7 m[0,0,58] + 4 m[0,0,59]
   - 5 m[0,1,56] - m[0,1,57] + 6639 m[0,1,58] - 6648 m[0,1,59]
   - 50000 c[0,14,-1.0] >= -56657
 R2138: 10 m[0,0,56] + 2 m[0,0,57] - 6641 m[0,0,58] - 6649 m[0,0,59]
   + m[0,1,56] + 3 m[0,1,57] - 6647 m[0,1,58] - 3 m[0,1,59]
   - 50000 c[0,14,-1.0] >= -63289
 R2139: 6 m[0,0,56] - m[0,0,57] - 2 m[0,0,58] + 4 m[0,0,59] - 2 m[0,1,57]
   + 5 m[0,1,58] + 4 m[0,1,59] - 50000 c[0,14,-1.0] >= -49999
 R2140: - 17 m[0,0,56] - 4 m[0,0,57] + 5 m[0,0,58] - m[0,0,59]
   + 4 m[0,1,56] + 2 m[0,1,57] + 13 m[0,1,58] - 10 m[0,1,59]
   - 50000 c[0,14,-1.0] >= -50015
 R2141: - 2 m[0,0,56] + 4 m[0,0,57] + 11 m[0,0,58] - 2 m[0,0,59]
   + 9 m[0,1,56] + 9 m[0,1,57] + 14 m[0,1,58] + 14 m[0,1,59]
   - 50000 c[0,14,-1.0] >= -49984
 R2142: 5 m[0,0,56] + 2 m[0,0,57] + 2 m[0,0,58] + 4 m[0,0,59] + 3 m[0,1,57]
   + m[0,1,59] - 50000 c[0,14,-1.0] >= -49995
 R2143: - 3324 m[0,0,56] + m[0,0,57] + 3324 m[0,0,59] + m[0,1,56]
   - 583 m[0,1,57] - 584 m[0,1,58] - 2740 m[0,1,59] - 50000 c[0,14,-1.0]
   >= -53907
 R2144: 15 m[0,0,56] - 2 m[0,0,57] + 3 m[0,0,58] - 10 m[0,0,59] - m[0,1,56]
   - 3 m[0,1,57] - 11 m[0,1,58] - 5 m[0,1,59] - 50000 c[0,14,-1.0]
   >= -50017
 R2145: - 5 m[0,0,56] - 2 m[0,0,57] + m[0,0,58] - 10 m[0,0,59]
   - 3 m[0,1,56] - 3 m[0,1,57] - 11 m[0,1,58] + 15 m[0,1,59]
   - 50000 c[0,14,-1.0] >= -50019
 R2146: c[0,15,0.0] + c[0,15,-3.0] + c[0,15,-2.0] + c[0,15,-1.41504]
   + c[0,15,-1.0] = 1
 R2147: - m[0,0,60] - m[0,0,61] - m[0,0,62] - m[0,0,63] - m[0,1,60]
   - m[0,1,61] - m[0,1,62] - m[0,1,63] - 50000 c[0,15,0.0] >= -50000
 R2148: c[0,15,-3.0] = 0
 R2149: - m[0,0,60] - m[0,0,63] - m[0,1,62] - m[0,1,63]
   - 50000 c[0,15,-2.0] >= -50003
 R2150: m[0,0,60] + 2 m[0,0,63] + m[0,1,63] - 50000 c[0,15,-2.0] >= -49998
 R2151: 3 m[0,0,60] + m[0,0,63] + 4 m[0,1,62] + 2 m[0,1,63]
   - 50000 c[0,15,-2.0] >= -49995
 R2152: c[0,15,-1.41504] = 0
 R2153: - 6649 m[0,0,60] + 3 m[0,0,61] - 7 m[0,0,62] + 4 m[0,0,63]
   - 5 m[0,1,60] - m[0,1,61] + 6639 m[0,1,62] - 6648 m[0,1,63]
   - 50000 c[0,15,-1.0] >= -56657
 R2154: 10 m[0,0,60] + 2 m[0,0,61] - 6641 m[0,0,62] - 6649 m[0,0,63]
   + m[0,1,60] + 3 m[0,1,61] - 6647 m[0,1,62] - 3 m[0,1,63]
   - 50000 c[0,15,-1.0] >= -63289
 R2155: 6 m[0,0,60] - m[0,0,61] - 2 m[0,0,62] + 4 m[0,0,63] - 2 m[0,1,61]
   + 5 m[0,1,62] + 4 m[0,1,63] - 50000 c[0,15,-1.0] >= -49999
 R2156: - 17 m[0,0,60] - 4 m[0,0,61] + 5 m[0,0,62] - m[0,0,63]
   + 4 m[0,1,60] + 2 m[0,1,61] + 13 m[0,1,62] - 10 m[0,1,63]
   - 50000 c[0,15,-1.0] >= -50015
 R2157: - 2 m[0,0,60] + 4 m[0,0,61] + 11 m[0,0,62] - 2 m[0,0,63]
   + 9 m[0,1,60] + 9 m[0,1,61] + 14 m[0,1,62] + 14 m[0,1,63]
   - 50000 c[0,15,-1.0] >= -49984
 R2158: 5 m[0,0,60] + 2 m[0,0,61] + 2 m[0,0,62] + 4 m[0,0,63] + 3 m[0,1,61]
   + m[0,1,63] - 50000 c[0,15,-1.0] >= -49995
 R2159: - 3324 m[0,0,60] + m[0,0,61] + 3324 m[0,0,63] + m[0,1,60]
   - 583 m[0,1,61] - 584 m[0,1,62] - 2740 m[0,1,63] - 50000 c[0,15,-1.0]
   >= -53907
 R2160: 15 m[0,0,60] - 2 m[0,0,61] + 3 m[0,0,62] - 10 m[0,0,63] - m[0,1,60]
   - 3 m[0,1,61] - 11 m[0,1,62] - 5 m[0,1,63] - 50000 c[0,15,-1.0]
   >= -50017
 R2161: - 5 m[0,0,60] - 2 m[0,0,61] + m[0,0,62] - 10 m[0,0,63]
   - 3 m[0,1,60] - 3 m[0,1,61] - 11 m[0,1,62] + 15 m[0,1,63]
   - 50000 c[0,15,-1.0] >= -50019
 R2162: c[1,0,0.0] + c[1,0,-3.0] + c[1,0,-2.0] + c[1,0,-1.41504]
   + c[1,0,-1.0] = 1
 R2163: - m[1,0,0] - m[1,0,1] - m[1,0,2] - m[1,0,3] - m[1,1,0] - m[1,1,1]
   - m[1,1,2] - m[1,1,3] - 50000 c[1,0,0.0] >= -50000
 R2164: c[1,0,-3.0] = 0
 R2165: - m[1,0,0] - m[1,0,3] - m[1,1,2] - m[1,1,3] - 50000 c[1,0,-2.0]
   >= -50003
 R2166: m[1,0,0] + 2 m[1,0,3] + m[1,1,3] - 50000 c[1,0,-2.0] >= -49998
 R2167: 3 m[1,0,0] + m[1,0,3] + 4 m[1,1,2] + 2 m[1,1,3] - 50000 c[1,0,-2.0]
   >= -49995
 R2168: c[1,0,-1.41504] = 0
 R2169: - 6649 m[1,0,0] + 3 m[1,0,1] - 7 m[1,0,2] + 4 m[1,0,3] - 5 m[1,1,0]
   - m[1,1,1] + 6639 m[1,1,2] - 6648 m[1,1,3] - 50000 c[1,0,-1.0]
   >= -56657
 R2170: 10 m[1,0,0] + 2 m[1,0,1] - 6641 m[1,0,2] - 6649 m[1,0,3] + m[1,1,0]
   + 3 m[1,1,1] - 6647 m[1,1,2] - 3 m[1,1,3] - 50000 c[1,0,-1.0] >= -63289
 R2171: 6 m[1,0,0] - m[1,0,1] - 2 m[1,0,2] + 4 m[1,0,3] - 2 m[1,1,1]
   + 5 m[1,1,2] + 4 m[1,1,3] - 50000 c[1,0,-1.0] >= -49999
 R2172: - 17 m[1,0,0] - 4 m[1,0,1] + 5 m[1,0,2] - m[1,0,3] + 4 m[1,1,0]
   + 2 m[1,1,1] + 13 m[1,1,2] - 10 m[1,1,3] - 50000 c[1,0,-1.0] >= -50015
 R2173: - 2 m[1,0,0] + 4 m[1,0,1] + 11 m[1,0,2] - 2 m[1,0,3] + 9 m[1,1,0]
   + 9 m[1,1,1] + 14 m[1,1,2] + 14 m[1,1,3] - 50000 c[1,0,-1.0] >= -49984
 R2174: 5 m[1,0,0] + 2 m[1,0,1] + 2 m[1,0,2] + 4 m[1,0,3] + 3 m[1,1,1]
   + m[1,1,3] - 50000 c[1,0,-1.0] >= -49995
 R2175: - 3324 m[1,0,0] + m[1,0,1] + 3324 m[1,0,3] + m[1,1,0]
   - 583 m[1,1,1] - 584 m[1,1,2] - 2740 m[1,1,3] - 50000 c[1,0,-1.0]
   >= -53907
 R2176: 15 m[1,0,0] - 2 m[1,0,1] + 3 m[1,0,2] - 10 m[1,0,3] - m[1,1,0]
   - 3 m[1,1,1] - 11 m[1,1,2] - 5 m[1,1,3] - 50000 c[1,0,-1.0] >= -50017
 R2177: - 5 m[1,0,0] - 2 m[1,0,1] + m[1,0,2] - 10 m[1,0,3] - 3 m[1,1,0]
   - 3 m[1,1,1] - 11 m[1,1,2] + 15 m[1,1,3] - 50000 c[1,0,-1.0] >= -50019
 R2178: c[1,1,0.0] + c[1,1,-3.0] + c[1,1,-2.0] + c[1,1,-1.41504]
   + c[1,1,-1.0] = 1
 R2179: - m[1,0,4] - m[1,0,5] - m[1,0,6] - m[1,0,7] - m[1,1,4] - m[1,1,5]
   - m[1,1,6] - m[1,1,7] - 50000 c[1,1,0.0] >= -50000
 R2180: c[1,1,-3.0] = 0
 R2181: - m[1,0,4] - m[1,0,7] - m[1,1,6] - m[1,1,7] - 50000 c[1,1,-2.0]
   >= -50003
 R2182: m[1,0,4] + 2 m[1,0,7] + m[1,1,7] - 50000 c[1,1,-2.0] >= -49998
 R2183: 3 m[1,0,4] + m[1,0,7] + 4 m[1,1,6] + 2 m[1,1,7] - 50000 c[1,1,-2.0]
   >= -49995
 R2184: c[1,1,-1.41504] = 0
 R2185: - 6649 m[1,0,4] + 3 m[1,0,5] - 7 m[1,0,6] + 4 m[1,0,7] - 5 m[1,1,4]
   - m[1,1,5] + 6639 m[1,1,6] - 6648 m[1,1,7] - 50000 c[1,1,-1.0]
   >= -56657
 R2186: 10 m[1,0,4] + 2 m[1,0,5] - 6641 m[1,0,6] - 6649 m[1,0,7] + m[1,1,4]
   + 3 m[1,1,5] - 6647 m[1,1,6] - 3 m[1,1,7] - 50000 c[1,1,-1.0] >= -63289
 R2187: 6 m[1,0,4] - m[1,0,5] - 2 m[1,0,6] + 4 m[1,0,7] - 2 m[1,1,5]
   + 5 m[1,1,6] + 4 m[1,1,7] - 50000 c[1,1,-1.0] >= -49999
 R2188: - 17 m[1,0,4] - 4 m[1,0,5] + 5 m[1,0,6] - m[1,0,7] + 4 m[1,1,4]
   + 2 m[1,1,5] + 13 m[1,1,6] - 10 m[1,1,7] - 50000 c[1,1,-1.0] >= -50015
 R2189: - 2 m[1,0,4] + 4 m[1,0,5] + 11 m[1,0,6] - 2 m[1,0,7] + 9 m[1,1,4]
   + 9 m[1,1,5] + 14 m[1,1,6] + 14 m[1,1,7] - 50000 c[1,1,-1.0] >= -49984
 R2190: 5 m[1,0,4] + 2 m[1,0,5] + 2 m[1,0,6] + 4 m[1,0,7] + 3 m[1,1,5]
   + m[1,1,7] - 50000 c[1,1,-1.0] >= -49995
 R2191: - 3324 m[1,0,4] + m[1,0,5] + 3324 m[1,0,7] + m[1,1,4]
   - 583 m[1,1,5] - 584 m[1,1,6] - 2740 m[1,1,7] - 50000 c[1,1,-1.0]
   >= -53907
 R2192: 15 m[1,0,4] - 2 m[1,0,5] + 3 m[1,0,6] - 10 m[1,0,7] - m[1,1,4]
   - 3 m[1,1,5] - 11 m[1,1,6] - 5 m[1,1,7] - 50000 c[1,1,-1.0] >= -50017
 R2193: - 5 m[1,0,4] - 2 m[1,0,5] + m[1,0,6] - 10 m[1,0,7] - 3 m[1,1,4]
   - 3 m[1,1,5] - 11 m[1,1,6] + 15 m[1,1,7] - 50000 c[1,1,-1.0] >= -50019
 R2194: c[1,2,0.0] + c[1,2,-3.0] + c[1,2,-2.0] + c[1,2,-1.41504]
   + c[1,2,-1.0] = 1
 R2195: - m[1,0,8] - m[1,0,9] - m[1,0,10] - m[1,0,11] - m[1,1,8] - m[1,1,9]
   - m[1,1,10] - m[1,1,11] - 50000 c[1,2,0.0] >= -50000
 R2196: c[1,2,-3.0] = 0
 R2197: - m[1,0,8] - m[1,0,11] - m[1,1,10] - m[1,1,11] - 50000 c[1,2,-2.0]
   >= -50003
 R2198: m[1,0,8] + 2 m[1,0,11] + m[1,1,11] - 50000 c[1,2,-2.0] >= -49998
 R2199: 3 m[1,0,8] + m[1,0,11] + 4 m[1,1,10] + 2 m[1,1,11]
   - 50000 c[1,2,-2.0] >= -49995
 R2200: c[1,2,-1.41504] = 0
 R2201: - 6649 m[1,0,8] + 3 m[1,0,9] - 7 m[1,0,10] + 4 m[1,0,11]
   - 5 m[1,1,8] - m[1,1,9] + 6639 m[1,1,10] - 6648 m[1,1,11]
   - 50000 c[1,2,-1.0] >= -56657
 R2202: 10 m[1,0,8] + 2 m[1,0,9] - 6641 m[1,0,10] - 6649 m[1,0,11]
   + m[1,1,8] + 3 m[1,1,9] - 6647 m[1,1,10] - 3 m[1,1,11]
   - 50000 c[1,2,-1.0] >= -63289
 R2203: 6 m[1,0,8] - m[1,0,9] - 2 m[1,0,10] + 4 m[1,0,11] - 2 m[1,1,9]
   + 5 m[1,1,10] + 4 m[1,1,11] - 50000 c[1,2,-1.0] >= -49999
 R2204: - 17 m[1,0,8] - 4 m[1,0,9] + 5 m[1,0,10] - m[1,0,11] + 4 m[1,1,8]
   + 2 m[1,1,9] + 13 m[1,1,10] - 10 m[1,1,11] - 50000 c[1,2,-1.0]
   >= -50015
 R2205: - 2 m[1,0,8] + 4 m[1,0,9] + 11 m[1,0,10] - 2 m[1,0,11] + 9 m[1,1,8]
   + 9 m[1,1,9] + 14 m[1,1,10] + 14 m[1,1,11] - 50000 c[1,2,-1.0]
   >= -49984
 R2206: 5 m[1,0,8] + 2 m[1,0,9] + 2 m[1,0,10] + 4 m[1,0,11] + 3 m[1,1,9]
   + m[1,1,11] - 50000 c[1,2,-1.0] >= -49995
 R2207: - 3324 m[1,0,8] + m[1,0,9] + 3324 m[1,0,11] + m[1,1,8]
   - 583 m[1,1,9] - 584 m[1,1,10] - 2740 m[1,1,11] - 50000 c[1,2,-1.0]
   >= -53907
 R2208: 15 m[1,0,8] - 2 m[1,0,9] + 3 m[1,0,10] - 10 m[1,0,11] - m[1,1,8]
   - 3 m[1,1,9] - 11 m[1,1,10] - 5 m[1,1,11] - 50000 c[1,2,-1.0] >= -50017
 R2209: - 5 m[1,0,8] - 2 m[1,0,9] + m[1,0,10] - 10 m[1,0,11] - 3 m[1,1,8]
   - 3 m[1,1,9] - 11 m[1,1,10] + 15 m[1,1,11] - 50000 c[1,2,-1.0]
   >= -50019
 R2210: c[1,3,0.0] + c[1,3,-3.0] + c[1,3,-2.0] + c[1,3,-1.41504]
   + c[1,3,-1.0] = 1
 R2211: - m[1,0,12] - m[1,0,13] - m[1,0,14] - m[1,0,15] - m[1,1,12]
   - m[1,1,13] - m[1,1,14] - m[1,1,15] - 50000 c[1,3,0.0] >= -50000
 R2212: c[1,3,-3.0] = 0
 R2213: - m[1,0,12] - m[1,0,15] - m[1,1,14] - m[1,1,15] - 50000 c[1,3,-2.0]
   >= -50003
 R2214: m[1,0,12] + 2 m[1,0,15] + m[1,1,15] - 50000 c[1,3,-2.0] >= -49998
 R2215: 3 m[1,0,12] + m[1,0,15] + 4 m[1,1,14] + 2 m[1,1,15]
   - 50000 c[1,3,-2.0] >= -49995
 R2216: c[1,3,-1.41504] = 0
 R2217: - 6649 m[1,0,12] + 3 m[1,0,13] - 7 m[1,0,14] + 4 m[1,0,15]
   - 5 m[1,1,12] - m[1,1,13] + 6639 m[1,1,14] - 6648 m[1,1,15]
   - 50000 c[1,3,-1.0] >= -56657
 R2218: 10 m[1,0,12] + 2 m[1,0,13] - 6641 m[1,0,14] - 6649 m[1,0,15]
   + m[1,1,12] + 3 m[1,1,13] - 6647 m[1,1,14] - 3 m[1,1,15]
   - 50000 c[1,3,-1.0] >= -63289
 R2219: 6 m[1,0,12] - m[1,0,13] - 2 m[1,0,14] + 4 m[1,0,15] - 2 m[1,1,13]
   + 5 m[1,1,14] + 4 m[1,1,15] - 50000 c[1,3,-1.0] >= -49999
 R2220: - 17 m[1,0,12] - 4 m[1,0,13] + 5 m[1,0,14] - m[1,0,15]
   + 4 m[1,1,12] + 2 m[1,1,13] + 13 m[1,1,14] - 10 m[1,1,15]
   - 50000 c[1,3,-1.0] >= -50015
 R2221: - 2 m[1,0,12] + 4 m[1,0,13] + 11 m[1,0,14] - 2 m[1,0,15]
   + 9 m[1,1,12] + 9 m[1,1,13] + 14 m[1,1,14] + 14 m[1,1,15]
   - 50000 c[1,3,-1.0] >= -49984
 R2222: 5 m[1,0,12] + 2 m[1,0,13] + 2 m[1,0,14] + 4 m[1,0,15] + 3 m[1,1,13]
   + m[1,1,15] - 50000 c[1,3,-1.0] >= -49995
 R2223: - 3324 m[1,0,12] + m[1,0,13] + 3324 m[1,0,15] + m[1,1,12]
   - 583 m[1,1,13] - 584 m[1,1,14] - 2740 m[1,1,15] - 50000 c[1,3,-1.0]
   >= -53907
 R2224: 15 m[1,0,12] - 2 m[1,0,13] + 3 m[1,0,14] - 10 m[1,0,15] - m[1,1,12]
   - 3 m[1,1,13] - 11 m[1,1,14] - 5 m[1,1,15] - 50000 c[1,3,-1.0]
   >= -50017
 R2225: - 5 m[1,0,12] - 2 m[1,0,13] + m[1,0,14] - 10 m[1,0,15]
   - 3 m[1,1,12] - 3 m[1,1,13] - 11 m[1,1,14] + 15 m[1,1,15]
   - 50000 c[1,3,-1.0] >= -50019
 R2226: c[1,4,0.0] + c[1,4,-3.0] + c[1,4,-2.0] + c[1,4,-1.41504]
   + c[1,4,-1.0] = 1
 R2227: - m[1,0,16] - m[1,0,17] - m[1,0,18] - m[1,0,19] - m[1,1,16]
   - m[1,1,17] - m[1,1,18] - m[1,1,19] - 50000 c[1,4,0.0] >= -50000
 R2228: c[1,4,-3.0] = 0
 R2229: - m[1,0,16] - m[1,0,19] - m[1,1,18] - m[1,1,19] - 50000 c[1,4,-2.0]
   >= -50003
 R2230: m[1,0,16] + 2 m[1,0,19] + m[1,1,19] - 50000 c[1,4,-2.0] >= -49998
 R2231: 3 m[1,0,16] + m[1,0,19] + 4 m[1,1,18] + 2 m[1,1,19]
   - 50000 c[1,4,-2.0] >= -49995
 R2232: c[1,4,-1.41504] = 0
 R2233: - 6649 m[1,0,16] + 3 m[1,0,17] - 7 m[1,0,18] + 4 m[1,0,19]
   - 5 m[1,1,16] - m[1,1,17] + 6639 m[1,1,18] - 6648 m[1,1,19]
   - 50000 c[1,4,-1.0] >= -56657
 R2234: 10 m[1,0,16] + 2 m[1,0,17] - 6641 m[1,0,18] - 6649 m[1,0,19]
   + m[1,1,16] + 3 m[1,1,17] - 6647 m[1,1,18] - 3 m[1,1,19]
   - 50000 c[1,4,-1.0] >= -63289
 R2235: 6 m[1,0,16] - m[1,0,17] - 2 m[1,0,18] + 4 m[1,0,19] - 2 m[1,1,17]
   + 5 m[1,1,18] + 4 m[1,1,19] - 50000 c[1,4,-1.0] >= -49999
 R2236: - 17 m[1,0,16] - 4 m[1,0,17] + 5 m[1,0,18] - m[1,0,19]
   + 4 m[1,1,16] + 2 m[1,1,17] + 13 m[1,1,18] - 10 m[1,1,19]
   - 50000 c[1,4,-1.0] >= -50015
 R2237: - 2 m[1,0,16] + 4 m[1,0,17] + 11 m[1,0,18] - 2 m[1,0,19]
   + 9 m[1,1,16] + 9 m[1,1,17] + 14 m[1,1,18] + 14 m[1,1,19]
   - 50000 c[1,4,-1.0] >= -49984
 R2238: 5 m[1,0,16] + 2 m[1,0,17] + 2 m[1,0,18] + 4 m[1,0,19] + 3 m[1,1,17]
   + m[1,1,19] - 50000 c[1,4,-1.0] >= -49995
 R2239: - 3324 m[1,0,16] + m[1,0,17] + 3324 m[1,0,19] + m[1,1,16]
   - 583 m[1,1,17] - 584 m[1,1,18] - 2740 m[1,1,19] - 50000 c[1,4,-1.0]
   >= -53907
 R2240: 15 m[1,0,16] - 2 m[1,0,17] + 3 m[1,0,18] - 10 m[1,0,19] - m[1,1,16]
   - 3 m[1,1,17] - 11 m[1,1,18] - 5 m[1,1,19] - 50000 c[1,4,-1.0]
   >= -50017
 R2241: - 5 m[1,0,16] - 2 m[1,0,17] + m[1,0,18] - 10 m[1,0,19]
   - 3 m[1,1,16] - 3 m[1,1,17] - 11 m[1,1,18] + 15 m[1,1,19]
   - 50000 c[1,4,-1.0] >= -50019
 R2242: c[1,5,0.0] + c[1,5,-3.0] + c[1,5,-2.0] + c[1,5,-1.41504]
   + c[1,5,-1.0] = 1
 R2243: - m[1,0,20] - m[1,0,21] - m[1,0,22] - m[1,0,23] - m[1,1,20]
   - m[1,1,21] - m[1,1,22] - m[1,1,23] - 50000 c[1,5,0.0] >= -50000
 R2244: c[1,5,-3.0] = 0
 R2245: - m[1,0,20] - m[1,0,23] - m[1,1,22] - m[1,1,23] - 50000 c[1,5,-2.0]
   >= -50003
 R2246: m[1,0,20] + 2 m[1,0,23] + m[1,1,23] - 50000 c[1,5,-2.0] >= -49998
 R2247: 3 m[1,0,20] + m[1,0,23] + 4 m[1,1,22] + 2 m[1,1,23]
   - 50000 c[1,5,-2.0] >= -49995
 R2248: c[1,5,-1.41504] = 0
 R2249: - 6649 m[1,0,20] + 3 m[1,0,21] - 7 m[1,0,22] + 4 m[1,0,23]
   - 5 m[1,1,20] - m[1,1,21] + 6639 m[1,1,22] - 6648 m[1,1,23]
   - 50000 c[1,5,-1.0] >= -56657
 R2250: 10 m[1,0,20] + 2 m[1,0,21] - 6641 m[1,0,22] - 6649 m[1,0,23]
   + m[1,1,20] + 3 m[1,1,21] - 6647 m[1,1,22] - 3 m[1,1,23]
   - 50000 c[1,5,-1.0] >= -63289
 R2251: 6 m[1,0,20] - m[1,0,21] - 2 m[1,0,22] + 4 m[1,0,23] - 2 m[1,1,21]
   + 5 m[1,1,22] + 4 m[1,1,23] - 50000 c[1,5,-1.0] >= -49999
 R2252: - 17 m[1,0,20] - 4 m[1,0,21] + 5 m[1,0,22] - m[1,0,23]
   + 4 m[1,1,20] + 2 m[1,1,21] + 13 m[1,1,22] - 10 m[1,1,23]
   - 50000 c[1,5,-1.0] >= -50015
 R2253: - 2 m[1,0,20] + 4 m[1,0,21] + 11 m[1,0,22] - 2 m[1,0,23]
   + 9 m[1,1,20] + 9 m[1,1,21] + 14 m[1,1,22] + 14 m[1,1,23]
   - 50000 c[1,5,-1.0] >= -49984
 R2254: 5 m[1,0,20] + 2 m[1,0,21] + 2 m[1,0,22] + 4 m[1,0,23] + 3 m[1,1,21]
   + m[1,1,23] - 50000 c[1,5,-1.0] >= -49995
 R2255: - 3324 m[1,0,20] + m[1,0,21] + 3324 m[1,0,23] + m[1,1,20]
   - 583 m[1,1,21] - 584 m[1,1,22] - 2740 m[1,1,23] - 50000 c[1,5,-1.0]
   >= -53907
 R2256: 15 m[1,0,20] - 2 m[1,0,21] + 3 m[1,0,22] - 10 m[1,0,23] - m[1,1,20]
   - 3 m[1,1,21] - 11 m[1,1,22] - 5 m[1,1,23] - 50000 c[1,5,-1.0]
   >= -50017
 R2257: - 5 m[1,0,20] - 2 m[1,0,21] + m[1,0,22] - 10 m[1,0,23]
   - 3 m[1,1,20] - 3 m[1,1,21] - 11 m[1,1,22] + 15 m[1,1,23]
   - 50000 c[1,5,-1.0] >= -50019
 R2258: c[1,6,0.0] + c[1,6,-3.0] + c[1,6,-2.0] + c[1,6,-1.41504]
   + c[1,6,-1.0] = 1
 R2259: - m[1,0,24] - m[1,0,25] - m[1,0,26] - m[1,0,27] - m[1,1,24]
   - m[1,1,25] - m[1,1,26] - m[1,1,27] - 50000 c[1,6,0.0] >= -50000
 R2260: c[1,6,-3.0] = 0
 R2261: - m[1,0,24] - m[1,0,27] - m[1,1,26] - m[1,1,27] - 50000 c[1,6,-2.0]
   >= -50003
 R2262: m[1,0,24] + 2 m[1,0,27] + m[1,1,27] - 50000 c[1,6,-2.0] >= -49998
 R2263: 3 m[1,0,24] + m[1,0,27] + 4 m[1,1,26] + 2 m[1,1,27]
   - 50000 c[1,6,-2.0] >= -49995
 R2264: c[1,6,-1.41504] = 0
 R2265: - 6649 m[1,0,24] + 3 m[1,0,25] - 7 m[1,0,26] + 4 m[1,0,27]
   - 5 m[1,1,24] - m[1,1,25] + 6639 m[1,1,26] - 6648 m[1,1,27]
   - 50000 c[1,6,-1.0] >= -56657
 R2266: 10 m[1,0,24] + 2 m[1,0,25] - 6641 m[1,0,26] - 6649 m[1,0,27]
   + m[1,1,24] + 3 m[1,1,25] - 6647 m[1,1,26] - 3 m[1,1,27]
   - 50000 c[1,6,-1.0] >= -63289
 R2267: 6 m[1,0,24] - m[1,0,25] - 2 m[1,0,26] + 4 m[1,0,27] - 2 m[1,1,25]
   + 5 m[1,1,26] + 4 m[1,1,27] - 50000 c[1,6,-1.0] >= -49999
 R2268: - 17 m[1,0,24] - 4 m[1,0,25] + 5 m[1,0,26] - m[1,0,27]
   + 4 m[1,1,24] + 2 m[1,1,25] + 13 m[1,1,26] - 10 m[1,1,27]
   - 50000 c[1,6,-1.0] >= -50015
 R2269: - 2 m[1,0,24] + 4 m[1,0,25] + 11 m[1,0,26] - 2 m[1,0,27]
   + 9 m[1,1,24] + 9 m[1,1,25] + 14 m[1,1,26] + 14 m[1,1,27]
   - 50000 c[1,6,-1.0] >= -49984
 R2270: 5 m[1,0,24] + 2 m[1,0,25] + 2 m[1,0,26] + 4 m[1,0,27] + 3 m[1,1,25]
   + m[1,1,27] - 50000 c[1,6,-1.0] >= -49995
 R2271: - 3324 m[1,0,24] + m[1,0,25] + 3324 m[1,0,27] + m[1,1,24]
   - 583 m[1,1,25] - 584 m[1,1,26] - 2740 m[1,1,27] - 50000 c[1,6,-1.0]
   >= -53907
 R2272: 15 m[1,0,24] - 2 m[1,0,25] + 3 m[1,0,26] - 10 m[1,0,27] - m[1,1,24]
   - 3 m[1,1,25] - 11 m[1,1,26] - 5 m[1,1,27] - 50000 c[1,6,-1.0]
   >= -50017
 R2273: - 5 m[1,0,24] - 2 m[1,0,25] + m[1,0,26] - 10 m[1,0,27]
   - 3 m[1,1,24] - 3 m[1,1,25] - 11 m[1,1,26] + 15 m[1,1,27]
   - 50000 c[1,6,-1.0] >= -50019
 R2274: c[1,7,0.0] + c[1,7,-3.0] + c[1,7,-2.0] + c[1,7,-1.41504]
   + c[1,7,-1.0] = 1
 R2275: - m[1,0,28] - m[1,0,29] - m[1,0,30] - m[1,0,31] - m[1,1,28]
   - m[1,1,29] - m[1,1,30] - m[1,1,31] - 50000 c[1,7,0.0] >= -50000
 R2276: c[1,7,-3.0] = 0
 R2277: - m[1,0,28] - m[1,0,31] - m[1,1,30] - m[1,1,31] - 50000 c[1,7,-2.0]
   >= -50003
 R2278: m[1,0,28] + 2 m[1,0,31] + m[1,1,31] - 50000 c[1,7,-2.0] >= -49998
 R2279: 3 m[1,0,28] + m[1,0,31] + 4 m[1,1,30] + 2 m[1,1,31]
   - 50000 c[1,7,-2.0] >= -49995
 R2280: c[1,7,-1.41504] = 0
 R2281: - 6649 m[1,0,28] + 3 m[1,0,29] - 7 m[1,0,30] + 4 m[1,0,31]
   - 5 m[1,1,28] - m[1,1,29] + 6639 m[1,1,30] - 6648 m[1,1,31]
   - 50000 c[1,7,-1.0] >= -56657
 R2282: 10 m[1,0,28] + 2 m[1,0,29] - 6641 m[1,0,30] - 6649 m[1,0,31]
   + m[1,1,28] + 3 m[1,1,29] - 6647 m[1,1,30] - 3 m[1,1,31]
   - 50000 c[1,7,-1.0] >= -63289
 R2283: 6 m[1,0,28] - m[1,0,29] - 2 m[1,0,30] + 4 m[1,0,31] - 2 m[1,1,29]
   + 5 m[1,1,30] + 4 m[1,1,31] - 50000 c[1,7,-1.0] >= -49999
 R2284: - 17 m[1,0,28] - 4 m[1,0,29] + 5 m[1,0,30] - m[1,0,31]
   + 4 m[1,1,28] + 2 m[1,1,29] + 13 m[1,1,30] - 10 m[1,1,31]
   - 50000 c[1,7,-1.0] >= -50015
 R2285: - 2 m[1,0,28] + 4 m[1,0,29] + 11 m[1,0,30] - 2 m[1,0,31]
   + 9 m[1,1,28] + 9 m[1,1,29] + 14 m[1,1,30] + 14 m[1,1,31]
   - 50000 c[1,7,-1.0] >= -49984
 R2286: 5 m[1,0,28] + 2 m[1,0,29] + 2 m[1,0,30] + 4 m[1,0,31] + 3 m[1,1,29]
   + m[1,1,31] - 50000 c[1,7,-1.0] >= -49995
 R2287: - 3324 m[1,0,28] + m[1,0,29] + 3324 m[1,0,31] + m[1,1,28]
   - 583 m[1,1,29] - 584 m[1,1,30] - 2740 m[1,1,31] - 50000 c[1,7,-1.0]
   >= -53907
 R2288: 15 m[1,0,28] - 2 m[1,0,29] + 3 m[1,0,30] - 10 m[1,0,31] - m[1,1,28]
   - 3 m[1,1,29] - 11 m[1,1,30] - 5 m[1,1,31] - 50000 c[1,7,-1.0]
   >= -50017
 R2289: - 5 m[1,0,28] - 2 m[1,0,29] + m[1,0,30] - 10 m[1,0,31]
   - 3 m[1,1,28] - 3 m[1,1,29] - 11 m[1,1,30] + 15 m[1,1,31]
   - 50000 c[1,7,-1.0] >= -50019
 R2290: c[1,8,0.0] + c[1,8,-3.0] + c[1,8,-2.0] + c[1,8,-1.41504]
   + c[1,8,-1.0] = 1
 R2291: - m[1,0,32] - m[1,0,33] - m[1,0,34] - m[1,0,35] - m[1,1,32]
   - m[1,1,33] - m[1,1,34] - m[1,1,35] - 50000 c[1,8,0.0] >= -50000
 R2292: c[1,8,-3.0] = 0
 R2293: - m[1,0,32] - m[1,0,35] - m[1,1,34] - m[1,1,35] - 50000 c[1,8,-2.0]
   >= -50003
 R2294: m[1,0,32] + 2 m[1,0,35] + m[1,1,35] - 50000 c[1,8,-2.0] >= -49998
 R2295: 3 m[1,0,32] + m[1,0,35] + 4 m[1,1,34] + 2 m[1,1,35]
   - 50000 c[1,8,-2.0] >= -49995
 R2296: c[1,8,-1.41504] = 0
 R2297: - 6649 m[1,0,32] + 3 m[1,0,33] - 7 m[1,0,34] + 4 m[1,0,35]
   - 5 m[1,1,32] - m[1,1,33] + 6639 m[1,1,34] - 6648 m[1,1,35]
   - 50000 c[1,8,-1.0] >= -56657
 R2298: 10 m[1,0,32] + 2 m[1,0,33] - 6641 m[1,0,34] - 6649 m[1,0,35]
   + m[1,1,32] + 3 m[1,1,33] - 6647 m[1,1,34] - 3 m[1,1,35]
   - 50000 c[1,8,-1.0] >= -63289
 R2299: 6 m[1,0,32] - m[1,0,33] - 2 m[1,0,34] + 4 m[1,0,35] - 2 m[1,1,33]
   + 5 m[1,1,34] + 4 m[1,1,35] - 50000 c[1,8,-1.0] >= -49999
 R2300: - 17 m[1,0,32] - 4 m[1,0,33] + 5 m[1,0,34] - m[1,0,35]
   + 4 m[1,1,32] + 2 m[1,1,33] + 13 m[1,1,34] - 10 m[1,1,35]
   - 50000 c[1,8,-1.0] >= -50015
 R2301: - 2 m[1,0,32] + 4 m[1,0,33] + 11 m[1,0,34] - 2 m[1,0,35]
   + 9 m[1,1,32] + 9 m[1,1,33] + 14 m[1,1,34] + 14 m[1,1,35]
   - 50000 c[1,8,-1.0] >= -49984
 R2302: 5 m[1,0,32] + 2 m[1,0,33] + 2 m[1,0,34] + 4 m[1,0,35] + 3 m[1,1,33]
   + m[1,1,35] - 50000 c[1,8,-1.0] >= -49995
 R2303: - 3324 m[1,0,32] + m[1,0,33] + 3324 m[1,0,35] + m[1,1,32]
   - 583 m[1,1,33] - 584 m[1,1,34] - 2740 m[1,1,35] - 50000 c[1,8,-1.0]
   >= -53907
 R2304: 15 m[1,0,32] - 2 m[1,0,33] + 3 m[1,0,34] - 10 m[1,0,35] - m[1,1,32]
   - 3 m[1,1,33] - 11 m[1,1,34] - 5 m[1,1,35] - 50000 c[1,8,-1.0]
   >= -50017
 R2305: - 5 m[1,0,32] - 2 m[1,0,33] + m[1,0,34] - 10 m[1,0,35]
   - 3 m[1,1,32] - 3 m[1,1,33] - 11 m[1,1,34] + 15 m[1,1,35]
   - 50000 c[1,8,-1.0] >= -50019
 R2306: c[1,9,0.0] + c[1,9,-3.0] + c[1,9,-2.0] + c[1,9,-1.41504]
   + c[1,9,-1.0] = 1
 R2307: c[1,9,0.0] = 0
 R2308: c[1,9,-3.0] = 0
 R2309: - 5 m[1,0,37] + 4 m[1,0,38] - m[1,1,36] + 4 m[1,1,37] - m[1,1,38]
   + m[1,1,39] - 50000 c[1,9,-2.0] >= -50002
 R2310: 7978 m[1,0,37] + m[1,0,38] + 7979 m[1,1,36] + m[1,1,37]
   - 7979 m[1,1,38] + 7979 m[1,1,39] - 50000 c[1,9,-2.0] >= -50000
 R2311: m[1,0,37] - m[1,1,36] + m[1,1,38] + m[1,1,39] - 50000 c[1,9,-2.0]
   >= -50000
 R2312: - 5 m[1,0,37] - 4 m[1,0,38] + m[1,1,36] - 4 m[1,1,37] + m[1,1,38]
   + m[1,1,39] - 50000 c[1,9,-2.0] >= -50008
 R2313: - m[1,0,37] - m[1,1,36] + m[1,1,38] - m[1,1,39] - 50000 c[1,9,-2.0]
   >= -50002
 R2314: 5 m[1,0,37] + 4 m[1,0,38] + m[1,1,36] - 4 m[1,1,37] + m[1,1,38]
   - m[1,1,39] - 50000 c[1,9,-2.0] >= -50000
 R2315: 5 m[1,0,37] - 4 m[1,0,38] - m[1,1,36] + 4 m[1,1,37] - m[1,1,38]
   - m[1,1,39] - 50000 c[1,9,-2.0] >= -50002
 R2316: - 5 m[1,0,37] + 4 m[1,0,38] + m[1,1,36] + 4 m[1,1,37] - m[1,1,38]
   - m[1,1,39] - 50000 c[1,9,-2.0] >= -50002
 R2317: c[1,9,-1.41504] = 0
 R2318: c[1,9,-1.0] = 0
 R2319: c[1,10,0.0] + c[1,10,-3.0] + c[1,10,-2.0] + c[1,10,-1.41504]
   + c[1,10,-1.0] = 1
 R2320: - m[1,0,40] - m[1,0,41] - m[1,0,42] - m[1,0,43] - m[1,1,40]
   - m[1,1,41] - m[1,1,42] - m[1,1,43] - 50000 c[1,10,0.0] >= -50000
 R2321: c[1,10,-3.0] = 0
 R2322: - m[1,0,40] - m[1,0,43] - m[1,1,42] - m[1,1,43]
   - 50000 c[1,10,-2.0] >= -50003
 R2323: m[1,0,40] + 2 m[1,0,43] + m[1,1,43] - 50000 c[1,10,-2.0] >= -49998
 R2324: 3 m[1,0,40] + m[1,0,43] + 4 m[1,1,42] + 2 m[1,1,43]
   - 50000 c[1,10,-2.0] >= -49995
 R2325: c[1,10,-1.41504] = 0
 R2326: - 6649 m[1,0,40] + 3 m[1,0,41] - 7 m[1,0,42] + 4 m[1,0,43]
   - 5 m[1,1,40] - m[1,1,41] + 6639 m[1,1,42] - 6648 m[1,1,43]
   - 50000 c[1,10,-1.0] >= -56657
 R2327: 10 m[1,0,40] + 2 m[1,0,41] - 6641 m[1,0,42] - 6649 m[1,0,43]
   + m[1,1,40] + 3 m[1,1,41] - 6647 m[1,1,42] - 3 m[1,1,43]
   - 50000 c[1,10,-1.0] >= -63289
 R2328: 6 m[1,0,40] - m[1,0,41] - 2 m[1,0,42] + 4 m[1,0,43] - 2 m[1,1,41]
   + 5 m[1,1,42] + 4 m[1,1,43] - 50000 c[1,10,-1.0] >= -49999
 R2329: - 17 m[1,0,40] - 4 m[1,0,41] + 5 m[1,0,42] - m[1,0,43]
   + 4 m[1,1,40] + 2 m[1,1,41] + 13 m[1,1,42] - 10 m[1,1,43]
   - 50000 c[1,10,-1.0] >= -50015
 R2330: - 2 m[1,0,40] + 4 m[1,0,41] + 11 m[1,0,42] - 2 m[1,0,43]
   + 9 m[1,1,40] + 9 m[1,1,41] + 14 m[1,1,42] + 14 m[1,1,43]
   - 50000 c[1,10,-1.0] >= -49984
 R2331: 5 m[1,0,40] + 2 m[1,0,41] + 2 m[1,0,42] + 4 m[1,0,43] + 3 m[1,1,41]
   + m[1,1,43] - 50000 c[1,10,-1.0] >= -49995
 R2332: - 3324 m[1,0,40] + m[1,0,41] + 3324 m[1,0,43] + m[1,1,40]
   - 583 m[1,1,41] - 584 m[1,1,42] - 2740 m[1,1,43] - 50000 c[1,10,-1.0]
   >= -53907
 R2333: 15 m[1,0,40] - 2 m[1,0,41] + 3 m[1,0,42] - 10 m[1,0,43] - m[1,1,40]
   - 3 m[1,1,41] - 11 m[1,1,42] - 5 m[1,1,43] - 50000 c[1,10,-1.0]
   >= -50017
 R2334: - 5 m[1,0,40] - 2 m[1,0,41] + m[1,0,42] - 10 m[1,0,43]
   - 3 m[1,1,40] - 3 m[1,1,41] - 11 m[1,1,42] + 15 m[1,1,43]
   - 50000 c[1,10,-1.0] >= -50019
 R2335: c[1,11,0.0] + c[1,11,-3.0] + c[1,11,-2.0] + c[1,11,-1.41504]
   + c[1,11,-1.0] = 1
 R2336: - m[1,0,44] - m[1,0,45] - m[1,0,46] - m[1,0,47] - m[1,1,44]
   - m[1,1,45] - m[1,1,46] - m[1,1,47] - 50000 c[1,11,0.0] >= -50000
 R2337: c[1,11,-3.0] = 0
 R2338: - m[1,0,44] - m[1,0,47] - m[1,1,46] - m[1,1,47]
   - 50000 c[1,11,-2.0] >= -50003
 R2339: m[1,0,44] + 2 m[1,0,47] + m[1,1,47] - 50000 c[1,11,-2.0] >= -49998
 R2340: 3 m[1,0,44] + m[1,0,47] + 4 m[1,1,46] + 2 m[1,1,47]
   - 50000 c[1,11,-2.0] >= -49995
 R2341: c[1,11,-1.41504] = 0
 R2342: - 6649 m[1,0,44] + 3 m[1,0,45] - 7 m[1,0,46] + 4 m[1,0,47]
   - 5 m[1,1,44] - m[1,1,45] + 6639 m[1,1,46] - 6648 m[1,1,47]
   - 50000 c[1,11,-1.0] >= -56657
 R2343: 10 m[1,0,44] + 2 m[1,0,45] - 6641 m[1,0,46] - 6649 m[1,0,47]
   + m[1,1,44] + 3 m[1,1,45] - 6647 m[1,1,46] - 3 m[1,1,47]
   - 50000 c[1,11,-1.0] >= -63289
 R2344: 6 m[1,0,44] - m[1,0,45] - 2 m[1,0,46] + 4 m[1,0,47] - 2 m[1,1,45]
   + 5 m[1,1,46] + 4 m[1,1,47] - 50000 c[1,11,-1.0] >= -49999
 R2345: - 17 m[1,0,44] - 4 m[1,0,45] + 5 m[1,0,46] - m[1,0,47]
   + 4 m[1,1,44] + 2 m[1,1,45] + 13 m[1,1,46] - 10 m[1,1,47]
   - 50000 c[1,11,-1.0] >= -50015
 R2346: - 2 m[1,0,44] + 4 m[1,0,45] + 11 m[1,0,46] - 2 m[1,0,47]
   + 9 m[1,1,44] + 9 m[1,1,45] + 14 m[1,1,46] + 14 m[1,1,47]
   - 50000 c[1,11,-1.0] >= -49984
 R2347: 5 m[1,0,44] + 2 m[1,0,45] + 2 m[1,0,46] + 4 m[1,0,47] + 3 m[1,1,45]
   + m[1,1,47] - 50000 c[1,11,-1.0] >= -49995
 R2348: - 3324 m[1,0,44] + m[1,0,45] + 3324 m[1,0,47] + m[1,1,44]
   - 583 m[1,1,45] - 584 m[1,1,46] - 2740 m[1,1,47] - 50000 c[1,11,-1.0]
   >= -53907
 R2349: 15 m[1,0,44] - 2 m[1,0,45] + 3 m[1,0,46] - 10 m[1,0,47] - m[1,1,44]
   - 3 m[1,1,45] - 11 m[1,1,46] - 5 m[1,1,47] - 50000 c[1,11,-1.0]
   >= -50017
 R2350: - 5 m[1,0,44] - 2 m[1,0,45] + m[1,0,46] - 10 m[1,0,47]
   - 3 m[1,1,44] - 3 m[1,1,45] - 11 m[1,1,46] + 15 m[1,1,47]
   - 50000 c[1,11,-1.0] >= -50019
 R2351: c[1,12,0.0] + c[1,12,-3.0] + c[1,12,-2.0] + c[1,12,-1.41504]
   + c[1,12,-1.0] = 1
 R2352: - m[1,0,48] - m[1,0,49] - m[1,0,50] - m[1,0,51] - m[1,1,48]
   - m[1,1,49] - m[1,1,50] - m[1,1,51] - 50000 c[1,12,0.0] >= -50000
 R2353: c[1,12,-3.0] = 0
 R2354: - m[1,0,48] - m[1,0,51] - m[1,1,50] - m[1,1,51]
   - 50000 c[1,12,-2.0] >= -50003
 R2355: m[1,0,48] + 2 m[1,0,51] + m[1,1,51] - 50000 c[1,12,-2.0] >= -49998
 R2356: 3 m[1,0,48] + m[1,0,51] + 4 m[1,1,50] + 2 m[1,1,51]
   - 50000 c[1,12,-2.0] >= -49995
 R2357: c[1,12,-1.41504] = 0
 R2358: - 6649 m[1,0,48] + 3 m[1,0,49] - 7 m[1,0,50] + 4 m[1,0,51]
   - 5 m[1,1,48] - m[1,1,49] + 6639 m[1,1,50] - 6648 m[1,1,51]
   - 50000 c[1,12,-1.0] >= -56657
 R2359: 10 m[1,0,48] + 2 m[1,0,49] - 6641 m[1,0,50] - 6649 m[1,0,51]
   + m[1,1,48] + 3 m[1,1,49] - 6647 m[1,1,50] - 3 m[1,1,51]
   - 50000 c[1,12,-1.0] >= -63289
 R2360: 6 m[1,0,48] - m[1,0,49] - 2 m[1,0,50] + 4 m[1,0,51] - 2 m[1,1,49]
   + 5 m[1,1,50] + 4 m[1,1,51] - 50000 c[1,12,-1.0] >= -49999
 R2361: - 17 m[1,0,48] - 4 m[1,0,49] + 5 m[1,0,50] - m[1,0,51]
   + 4 m[1,1,48] + 2 m[1,1,49] + 13 m[1,1,50] - 10 m[1,1,51]
   - 50000 c[1,12,-1.0] >= -50015
 R2362: - 2 m[1,0,48] + 4 m[1,0,49] + 11 m[1,0,50] - 2 m[1,0,51]
   + 9 m[1,1,48] + 9 m[1,1,49] + 14 m[1,1,50] + 14 m[1,1,51]
   - 50000 c[1,12,-1.0] >= -49984
 R2363: 5 m[1,0,48] + 2 m[1,0,49] + 2 m[1,0,50] + 4 m[1,0,51] + 3 m[1,1,49]
   + m[1,1,51] - 50000 c[1,12,-1.0] >= -49995
 R2364: - 3324 m[1,0,48] + m[1,0,49] + 3324 m[1,0,51] + m[1,1,48]
   - 583 m[1,1,49] - 584 m[1,1,50] - 2740 m[1,1,51] - 50000 c[1,12,-1.0]
   >= -53907
 R2365: 15 m[1,0,48] - 2 m[1,0,49] + 3 m[1,0,50] - 10 m[1,0,51] - m[1,1,48]
   - 3 m[1,1,49] - 11 m[1,1,50] - 5 m[1,1,51] - 50000 c[1,12,-1.0]
   >= -50017
 R2366: - 5 m[1,0,48] - 2 m[1,0,49] + m[1,0,50] - 10 m[1,0,51]
   - 3 m[1,1,48] - 3 m[1,1,49] - 11 m[1,1,50] + 15 m[1,1,51]
   - 50000 c[1,12,-1.0] >= -50019
 R2367: c[1,13,0.0] + c[1,13,-3.0] + c[1,13,-2.0] + c[1,13,-1.41504]
   + c[1,13,-1.0] = 1
 R2368: - m[1,0,52] - m[1,0,53] - m[1,0,54] - m[1,0,55] - m[1,1,52]
   - m[1,1,53] - m[1,1,54] - m[1,1,55] - 50000 c[1,13,0.0] >= -50000
 R2369: c[1,13,-3.0] = 0
 R2370: - m[1,0,52] - m[1,0,55] - m[1,1,54] - m[1,1,55]
   - 50000 c[1,13,-2.0] >= -50003
 R2371: m[1,0,52] + 2 m[1,0,55] + m[1,1,55] - 50000 c[1,13,-2.0] >= -49998
 R2372: 3 m[1,0,52] + m[1,0,55] + 4 m[1,1,54] + 2 m[1,1,55]
   - 50000 c[1,13,-2.0] >= -49995
 R2373: c[1,13,-1.41504] = 0
 R2374: - 6649 m[1,0,52] + 3 m[1,0,53] - 7 m[1,0,54] + 4 m[1,0,55]
   - 5 m[1,1,52] - m[1,1,53] + 6639 m[1,1,54] - 6648 m[1,1,55]
   - 50000 c[1,13,-1.0] >= -56657
 R2375: 10 m[1,0,52] + 2 m[1,0,53] - 6641 m[1,0,54] - 6649 m[1,0,55]
   + m[1,1,52] + 3 m[1,1,53] - 6647 m[1,1,54] - 3 m[1,1,55]
   - 50000 c[1,13,-1.0] >= -63289
 R2376: 6 m[1,0,52] - m[1,0,53] - 2 m[1,0,54] + 4 m[1,0,55] - 2 m[1,1,53]
   + 5 m[1,1,54] + 4 m[1,1,55] - 50000 c[1,13,-1.0] >= -49999
 R2377: - 17 m[1,0,52] - 4 m[1,0,53] + 5 m[1,0,54] - m[1,0,55]
   + 4 m[1,1,52] + 2 m[1,1,53] + 13 m[1,1,54] - 10 m[1,1,55]
   - 50000 c[1,13,-1.0] >= -50015
 R2378: - 2 m[1,0,52] + 4 m[1,0,53] + 11 m[1,0,54] - 2 m[1,0,55]
   + 9 m[1,1,52] + 9 m[1,1,53] + 14 m[1,1,54] + 14 m[1,1,55]
   - 50000 c[1,13,-1.0] >= -49984
 R2379: 5 m[1,0,52] + 2 m[1,0,53] + 2 m[1,0,54] + 4 m[1,0,55] + 3 m[1,1,53]
   + m[1,1,55] - 50000 c[1,13,-1.0] >= -49995
 R2380: - 3324 m[1,0,52] + m[1,0,53] + 3324 m[1,0,55] + m[1,1,52]
   - 583 m[1,1,53] - 584 m[1,1,54] - 2740 m[1,1,55] - 50000 c[1,13,-1.0]
   >= -53907
 R2381: 15 m[1,0,52] - 2 m[1,0,53] + 3 m[1,0,54] - 10 m[1,0,55] - m[1,1,52]
   - 3 m[1,1,53] - 11 m[1,1,54] - 5 m[1,1,55] - 50000 c[1,13,-1.0]
   >= -50017
 R2382: - 5 m[1,0,52] - 2 m[1,0,53] + m[1,0,54] - 10 m[1,0,55]
   - 3 m[1,1,52] - 3 m[1,1,53] - 11 m[1,1,54] + 15 m[1,1,55]
   - 50000 c[1,13,-1.0] >= -50019
 R2383: c[1,14,0.0] + c[1,14,-3.0] + c[1,14,-2.0] + c[1,14,-1.41504]
   + c[1,14,-1.0] = 1
 R2384: c[1,14,0.0] = 0
 R2385: - m[1,0,57] - m[1,1,57] - m[1,1,58] - 50000 c[1,14,-3.0] >= -50002
 R2386: m[1,0,57] + m[1,1,57] - m[1,1,58] - 50000 c[1,14,-3.0] >= -50000
 R2387: m[1,0,57] - m[1,1,57] + m[1,1,58] - 50000 c[1,14,-3.0] >= -50000
 R2388: - m[1,0,57] + m[1,1,57] + m[1,1,58] - 50000 c[1,14,-3.0] >= -50000
 R2389: c[1,14,-2.0] = 0
 R2390: c[1,14,-1.41504] = 0
 R2391: c[1,14,-1.0] = 0
 R2392: c[1,15,0.0] + c[1,15,-3.0] + c[1,15,-2.0] + c[1,15,-1.41504]
   + c[1,15,-1.0] = 1
 R2393: - m[1,0,60] - m[1,0,61] - m[1,0,62] - m[1,0,63] - m[1,1,60]
   - m[1,1,61] - m[1,1,62] - m[1,1,63] - 50000 c[1,15,0.0] >= -50000
 R2394: c[1,15,-3.0] = 0
 R2395: - m[1,0,60] - m[1,0,63] - m[1,1,62] - m[1,1,63]
   - 50000 c[1,15,-2.0] >= -50003
 R2396: m[1,0,60] + 2 m[1,0,63] + m[1,1,63] - 50000 c[1,15,-2.0] >= -49998
 R2397: 3 m[1,0,60] + m[1,0,63] + 4 m[1,1,62] + 2 m[1,1,63]
   - 50000 c[1,15,-2.0] >= -49995
 R2398: c[1,15,-1.41504] = 0
 R2399: - 6649 m[1,0,60] + 3 m[1,0,61] - 7 m[1,0,62] + 4 m[1,0,63]
   - 5 m[1,1,60] - m[1,1,61] + 6639 m[1,1,62] - 6648 m[1,1,63]
   - 50000 c[1,15,-1.0] >= -56657
 R2400: 10 m[1,0,60] + 2 m[1,0,61] - 6641 m[1,0,62] - 6649 m[1,0,63]
   + m[1,1,60] + 3 m[1,1,61] - 6647 m[1,1,62] - 3 m[1,1,63]
   - 50000 c[1,15,-1.0] >= -63289
 R2401: 6 m[1,0,60] - m[1,0,61] - 2 m[1,0,62] + 4 m[1,0,63] - 2 m[1,1,61]
   + 5 m[1,1,62] + 4 m[1,1,63] - 50000 c[1,15,-1.0] >= -49999
 R2402: - 17 m[1,0,60] - 4 m[1,0,61] + 5 m[1,0,62] - m[1,0,63]
   + 4 m[1,1,60] + 2 m[1,1,61] + 13 m[1,1,62] - 10 m[1,1,63]
   - 50000 c[1,15,-1.0] >= -50015
 R2403: - 2 m[1,0,60] + 4 m[1,0,61] + 11 m[1,0,62] - 2 m[1,0,63]
   + 9 m[1,1,60] + 9 m[1,1,61] + 14 m[1,1,62] + 14 m[1,1,63]
   - 50000 c[1,15,-1.0] >= -49984
 R2404: 5 m[1,0,60] + 2 m[1,0,61] + 2 m[1,0,62] + 4 m[1,0,63] + 3 m[1,1,61]
   + m[1,1,63] - 50000 c[1,15,-1.0] >= -49995
 R2405: - 3324 m[1,0,60] + m[1,0,61] + 3324 m[1,0,63] + m[1,1,60]
   - 583 m[1,1,61] - 584 m[1,1,62] - 2740 m[1,1,63] - 50000 c[1,15,-1.0]
   >= -53907
 R2406: 15 m[1,0,60] - 2 m[1,0,61] + 3 m[1,0,62] - 10 m[1,0,63] - m[1,1,60]
   - 3 m[1,1,61] - 11 m[1,1,62] - 5 m[1,1,63] - 50000 c[1,15,-1.0]
   >= -50017
 R2407: - 5 m[1,0,60] - 2 m[1,0,61] + m[1,0,62] - 10 m[1,0,63]
   - 3 m[1,1,60] - 3 m[1,1,61] - 11 m[1,1,62] + 15 m[1,1,63]
   - 50000 c[1,15,-1.0] >= -50019
 R2408: c[2,0,0.0] + c[2,0,-3.0] + c[2,0,-2.0] + c[2,0,-1.41504]
   + c[2,0,-1.0] = 1
 R2409: - m[2,0,0] - m[2,0,1] - m[2,0,2] - m[2,0,3] - m[2,1,0] - m[2,1,1]
   - m[2,1,2] - m[2,1,3] - 50000 c[2,0,0.0] >= -50000
 R2410: c[2,0,-3.0] = 0
 R2411: - m[2,0,0] - m[2,0,3] - m[2,1,2] - m[2,1,3] - 50000 c[2,0,-2.0]
   >= -50003
 R2412: m[2,0,0] + 2 m[2,0,3] + m[2,1,3] - 50000 c[2,0,-2.0] >= -49998
 R2413: 3 m[2,0,0] + m[2,0,3] + 4 m[2,1,2] + 2 m[2,1,3] - 50000 c[2,0,-2.0]
   >= -49995
 R2414: c[2,0,-1.41504] = 0
 R2415: - 6649 m[2,0,0] + 3 m[2,0,1] - 7 m[2,0,2] + 4 m[2,0,3] - 5 m[2,1,0]
   - m[2,1,1] + 6639 m[2,1,2] - 6648 m[2,1,3] - 50000 c[2,0,-1.0]
   >= -56657
 R2416: 10 m[2,0,0] + 2 m[2,0,1] - 6641 m[2,0,2] - 6649 m[2,0,3] + m[2,1,0]
   + 3 m[2,1,1] - 6647 m[2,1,2] - 3 m[2,1,3] - 50000 c[2,0,-1.0] >= -63289
 R2417: 6 m[2,0,0] - m[2,0,1] - 2 m[2,0,2] + 4 m[2,0,3] - 2 m[2,1,1]
   + 5 m[2,1,2] + 4 m[2,1,3] - 50000 c[2,0,-1.0] >= -49999
 R2418: - 17 m[2,0,0] - 4 m[2,0,1] + 5 m[2,0,2] - m[2,0,3] + 4 m[2,1,0]
   + 2 m[2,1,1] + 13 m[2,1,2] - 10 m[2,1,3] - 50000 c[2,0,-1.0] >= -50015
 R2419: - 2 m[2,0,0] + 4 m[2,0,1] + 11 m[2,0,2] - 2 m[2,0,3] + 9 m[2,1,0]
   + 9 m[2,1,1] + 14 m[2,1,2] + 14 m[2,1,3] - 50000 c[2,0,-1.0] >= -49984
 R2420: 5 m[2,0,0] + 2 m[2,0,1] + 2 m[2,0,2] + 4 m[2,0,3] + 3 m[2,1,1]
   + m[2,1,3] - 50000 c[2,0,-1.0] >= -49995
 R2421: - 3324 m[2,0,0] + m[2,0,1] + 3324 m[2,0,3] + m[2,1,0]
   - 583 m[2,1,1] - 584 m[2,1,2] - 2740 m[2,1,3] - 50000 c[2,0,-1.0]
   >= -53907
 R2422: 15 m[2,0,0] - 2 m[2,0,1] + 3 m[2,0,2] - 10 m[2,0,3] - m[2,1,0]
   - 3 m[2,1,1] - 11 m[2,1,2] - 5 m[2,1,3] - 50000 c[2,0,-1.0] >= -50017
 R2423: - 5 m[2,0,0] - 2 m[2,0,1] + m[2,0,2] - 10 m[2,0,3] - 3 m[2,1,0]
   - 3 m[2,1,1] - 11 m[2,1,2] + 15 m[2,1,3] - 50000 c[2,0,-1.0] >= -50019
 R2424: c[2,1,0.0] + c[2,1,-3.0] + c[2,1,-2.0] + c[2,1,-1.41504]
   + c[2,1,-1.0] = 1
 R2425: - m[2,0,4] - m[2,0,5] - m[2,0,6] - m[2,0,7] - m[2,1,4] - m[2,1,5]
   - m[2,1,6] - m[2,1,7] - 50000 c[2,1,0.0] >= -50000
 R2426: c[2,1,-3.0] = 0
 R2427: - m[2,0,4] - m[2,0,7] - m[2,1,6] - m[2,1,7] - 50000 c[2,1,-2.0]
   >= -50003
 R2428: m[2,0,4] + 2 m[2,0,7] + m[2,1,7] - 50000 c[2,1,-2.0] >= -49998
 R2429: 3 m[2,0,4] + m[2,0,7] + 4 m[2,1,6] + 2 m[2,1,7] - 50000 c[2,1,-2.0]
   >= -49995
 R2430: c[2,1,-1.41504] = 0
 R2431: - 6649 m[2,0,4] + 3 m[2,0,5] - 7 m[2,0,6] + 4 m[2,0,7] - 5 m[2,1,4]
   - m[2,1,5] + 6639 m[2,1,6] - 6648 m[2,1,7] - 50000 c[2,1,-1.0]
   >= -56657
 R2432: 10 m[2,0,4] + 2 m[2,0,5] - 6641 m[2,0,6] - 6649 m[2,0,7] + m[2,1,4]
   + 3 m[2,1,5] - 6647 m[2,1,6] - 3 m[2,1,7] - 50000 c[2,1,-1.0] >= -63289
 R2433: 6 m[2,0,4] - m[2,0,5] - 2 m[2,0,6] + 4 m[2,0,7] - 2 m[2,1,5]
   + 5 m[2,1,6] + 4 m[2,1,7] - 50000 c[2,1,-1.0] >= -49999
 R2434: - 17 m[2,0,4] - 4 m[2,0,5] + 5 m[2,0,6] - m[2,0,7] + 4 m[2,1,4]
   + 2 m[2,1,5] + 13 m[2,1,6] - 10 m[2,1,7] - 50000 c[2,1,-1.0] >= -50015
 R2435: - 2 m[2,0,4] + 4 m[2,0,5] + 11 m[2,0,6] - 2 m[2,0,7] + 9 m[2,1,4]
   + 9 m[2,1,5] + 14 m[2,1,6] + 14 m[2,1,7] - 50000 c[2,1,-1.0] >= -49984
 R2436: 5 m[2,0,4] + 2 m[2,0,5] + 2 m[2,0,6] + 4 m[2,0,7] + 3 m[2,1,5]
   + m[2,1,7] - 50000 c[2,1,-1.0] >= -49995
 R2437: - 3324 m[2,0,4] + m[2,0,5] + 3324 m[2,0,7] + m[2,1,4]
   - 583 m[2,1,5] - 584 m[2,1,6] - 2740 m[2,1,7] - 50000 c[2,1,-1.0]
   >= -53907
 R2438: 15 m[2,0,4] - 2 m[2,0,5] + 3 m[2,0,6] - 10 m[2,0,7] - m[2,1,4]
   - 3 m[2,1,5] - 11 m[2,1,6] - 5 m[2,1,7] - 50000 c[2,1,-1.0] >= -50017
 R2439: - 5 m[2,0,4] - 2 m[2,0,5] + m[2,0,6] - 10 m[2,0,7] - 3 m[2,1,4]
   - 3 m[2,1,5] - 11 m[2,1,6] + 15 m[2,1,7] - 50000 c[2,1,-1.0] >= -50019
 R2440: c[2,2,0.0] + c[2,2,-3.0] + c[2,2,-2.0] + c[2,2,-1.41504]
   + c[2,2,-1.0] = 1
 R2441: - m[2,0,8] - m[2,0,9] - m[2,0,10] - m[2,0,11] - m[2,1,8] - m[2,1,9]
   - m[2,1,10] - m[2,1,11] - 50000 c[2,2,0.0] >= -50000
 R2442: c[2,2,-3.0] = 0
 R2443: - m[2,0,8] - m[2,0,11] - m[2,1,10] - m[2,1,11] - 50000 c[2,2,-2.0]
   >= -50003
 R2444: m[2,0,8] + 2 m[2,0,11] + m[2,1,11] - 50000 c[2,2,-2.0] >= -49998
 R2445: 3 m[2,0,8] + m[2,0,11] + 4 m[2,1,10] + 2 m[2,1,11]
   - 50000 c[2,2,-2.0] >= -49995
 R2446: c[2,2,-1.41504] = 0
 R2447: - 6649 m[2,0,8] + 3 m[2,0,9] - 7 m[2,0,10] + 4 m[2,0,11]
   - 5 m[2,1,8] - m[2,1,9] + 6639 m[2,1,10] - 6648 m[2,1,11]
   - 50000 c[2,2,-1.0] >= -56657
 R2448: 10 m[2,0,8] + 2 m[2,0,9] - 6641 m[2,0,10] - 6649 m[2,0,11]
   + m[2,1,8] + 3 m[2,1,9] - 6647 m[2,1,10] - 3 m[2,1,11]
   - 50000 c[2,2,-1.0] >= -63289
 R2449: 6 m[2,0,8] - m[2,0,9] - 2 m[2,0,10] + 4 m[2,0,11] - 2 m[2,1,9]
   + 5 m[2,1,10] + 4 m[2,1,11] - 50000 c[2,2,-1.0] >= -49999
 R2450: - 17 m[2,0,8] - 4 m[2,0,9] + 5 m[2,0,10] - m[2,0,11] + 4 m[2,1,8]
   + 2 m[2,1,9] + 13 m[2,1,10] - 10 m[2,1,11] - 50000 c[2,2,-1.0]
   >= -50015
 R2451: - 2 m[2,0,8] + 4 m[2,0,9] + 11 m[2,0,10] - 2 m[2,0,11] + 9 m[2,1,8]
   + 9 m[2,1,9] + 14 m[2,1,10] + 14 m[2,1,11] - 50000 c[2,2,-1.0]
   >= -49984
 R2452: 5 m[2,0,8] + 2 m[2,0,9] + 2 m[2,0,10] + 4 m[2,0,11] + 3 m[2,1,9]
   + m[2,1,11] - 50000 c[2,2,-1.0] >= -49995
 R2453: - 3324 m[2,0,8] + m[2,0,9] + 3324 m[2,0,11] + m[2,1,8]
   - 583 m[2,1,9] - 584 m[2,1,10] - 2740 m[2,1,11] - 50000 c[2,2,-1.0]
   >= -53907
 R2454: 15 m[2,0,8] - 2 m[2,0,9] + 3 m[2,0,10] - 10 m[2,0,11] - m[2,1,8]
   - 3 m[2,1,9] - 11 m[2,1,10] - 5 m[2,1,11] - 50000 c[2,2,-1.0] >= -50017
 R2455: - 5 m[2,0,8] - 2 m[2,0,9] + m[2,0,10] - 10 m[2,0,11] - 3 m[2,1,8]
   - 3 m[2,1,9] - 11 m[2,1,10] + 15 m[2,1,11] - 50000 c[2,2,-1.0]
   >= -50019
 R2456: c[2,3,0.0] + c[2,3,-3.0] + c[2,3,-2.0] + c[2,3,-1.41504]
   + c[2,3,-1.0] = 1
 R2457: - m[2,0,12] - m[2,0,13] - m[2,0,14] - m[2,0,15] - m[2,1,12]
   - m[2,1,13] - m[2,1,14] - m[2,1,15] - 50000 c[2,3,0.0] >= -50000
 R2458: c[2,3,-3.0] = 0
 R2459: - m[2,0,12] - m[2,0,15] - m[2,1,14] - m[2,1,15] - 50000 c[2,3,-2.0]
   >= -50003
 R2460: m[2,0,12] + 2 m[2,0,15] + m[2,1,15] - 50000 c[2,3,-2.0] >= -49998
 R2461: 3 m[2,0,12] + m[2,0,15] + 4 m[2,1,14] + 2 m[2,1,15]
   - 50000 c[2,3,-2.0] >= -49995
 R2462: c[2,3,-1.41504] = 0
 R2463: - 6649 m[2,0,12] + 3 m[2,0,13] - 7 m[2,0,14] + 4 m[2,0,15]
   - 5 m[2,1,12] - m[2,1,13] + 6639 m[2,1,14] - 6648 m[2,1,15]
   - 50000 c[2,3,-1.0] >= -56657
 R2464: 10 m[2,0,12] + 2 m[2,0,13] - 6641 m[2,0,14] - 6649 m[2,0,15]
   + m[2,1,12] + 3 m[2,1,13] - 6647 m[2,1,14] - 3 m[2,1,15]
   - 50000 c[2,3,-1.0] >= -63289
 R2465: 6 m[2,0,12] - m[2,0,13] - 2 m[2,0,14] + 4 m[2,0,15] - 2 m[2,1,13]
   + 5 m[2,1,14] + 4 m[2,1,15] - 50000 c[2,3,-1.0] >= -49999
 R2466: - 17 m[2,0,12] - 4 m[2,0,13] + 5 m[2,0,14] - m[2,0,15]
   + 4 m[2,1,12] + 2 m[2,1,13] + 13 m[2,1,14] - 10 m[2,1,15]
   - 50000 c[2,3,-1.0] >= -50015
 R2467: - 2 m[2,0,12] + 4 m[2,0,13] + 11 m[2,0,14] - 2 m[2,0,15]
   + 9 m[2,1,12] + 9 m[2,1,13] + 14 m[2,1,14] + 14 m[2,1,15]
   - 50000 c[2,3,-1.0] >= -49984
 R2468: 5 m[2,0,12] + 2 m[2,0,13] + 2 m[2,0,14] + 4 m[2,0,15] + 3 m[2,1,13]
   + m[2,1,15] - 50000 c[2,3,-1.0] >= -49995
 R2469: - 3324 m[2,0,12] + m[2,0,13] + 3324 m[2,0,15] + m[2,1,12]
   - 583 m[2,1,13] - 584 m[2,1,14] - 2740 m[2,1,15] - 50000 c[2,3,-1.0]
   >= -53907
 R2470: 15 m[2,0,12] - 2 m[2,0,13] + 3 m[2,0,14] - 10 m[2,0,15] - m[2,1,12]
   - 3 m[2,1,13] - 11 m[2,1,14] - 5 m[2,1,15] - 50000 c[2,3,-1.0]
   >= -50017
 R2471: - 5 m[2,0,12] - 2 m[2,0,13] + m[2,0,14] - 10 m[2,0,15]
   - 3 m[2,1,12] - 3 m[2,1,13] - 11 m[2,1,14] + 15 m[2,1,15]
   - 50000 c[2,3,-1.0] >= -50019
 R2472: c[2,4,0.0] + c[2,4,-3.0] + c[2,4,-2.0] + c[2,4,-1.41504]
   + c[2,4,-1.0] = 1
 R2473: - m[2,0,16] - m[2,0,17] - m[2,0,18] - m[2,0,19] - m[2,1,16]
   - m[2,1,17] - m[2,1,18] - m[2,1,19] - 50000 c[2,4,0.0] >= -50000
 R2474: c[2,4,-3.0] = 0
 R2475: - m[2,0,16] - m[2,0,19] - m[2,1,18] - m[2,1,19] - 50000 c[2,4,-2.0]
   >= -50003
 R2476: m[2,0,16] + 2 m[2,0,19] + m[2,1,19] - 50000 c[2,4,-2.0] >= -49998
 R2477: 3 m[2,0,16] + m[2,0,19] + 4 m[2,1,18] + 2 m[2,1,19]
   - 50000 c[2,4,-2.0] >= -49995
 R2478: c[2,4,-1.41504] = 0
 R2479: - 6649 m[2,0,16] + 3 m[2,0,17] - 7 m[2,0,18] + 4 m[2,0,19]
   - 5 m[2,1,16] - m[2,1,17] + 6639 m[2,1,18] - 6648 m[2,1,19]
   - 50000 c[2,4,-1.0] >= -56657
 R2480: 10 m[2,0,16] + 2 m[2,0,17] - 6641 m[2,0,18] - 6649 m[2,0,19]
   + m[2,1,16] + 3 m[2,1,17] - 6647 m[2,1,18] - 3 m[2,1,19]
   - 50000 c[2,4,-1.0] >= -63289
 R2481: 6 m[2,0,16] - m[2,0,17] - 2 m[2,0,18] + 4 m[2,0,19] - 2 m[2,1,17]
   + 5 m[2,1,18] + 4 m[2,1,19] - 50000 c[2,4,-1.0] >= -49999
 R2482: - 17 m[2,0,16] - 4 m[2,0,17] + 5 m[2,0,18] - m[2,0,19]
   + 4 m[2,1,16] + 2 m[2,1,17] + 13 m[2,1,18] - 10 m[2,1,19]
   - 50000 c[2,4,-1.0] >= -50015
 R2483: - 2 m[2,0,16] + 4 m[2,0,17] + 11 m[2,0,18] - 2 m[2,0,19]
   + 9 m[2,1,16] + 9 m[2,1,17] + 14 m[2,1,18] + 14 m[2,1,19]
   - 50000 c[2,4,-1.0] >= -49984
 R2484: 5 m[2,0,16] + 2 m[2,0,17] + 2 m[2,0,18] + 4 m[2,0,19] + 3 m[2,1,17]
   + m[2,1,19] - 50000 c[2,4,-1.0] >= -49995
 R2485: - 3324 m[2,0,16] + m[2,0,17] + 3324 m[2,0,19] + m[2,1,16]
   - 583 m[2,1,17] - 584 m[2,1,18] - 2740 m[2,1,19] - 50000 c[2,4,-1.0]
   >= -53907
 R2486: 15 m[2,0,16] - 2 m[2,0,17] + 3 m[2,0,18] - 10 m[2,0,19] - m[2,1,16]
   - 3 m[2,1,17] - 11 m[2,1,18] - 5 m[2,1,19] - 50000 c[2,4,-1.0]
   >= -50017
 R2487: - 5 m[2,0,16] - 2 m[2,0,17] + m[2,0,18] - 10 m[2,0,19]
   - 3 m[2,1,16] - 3 m[2,1,17] - 11 m[2,1,18] + 15 m[2,1,19]
   - 50000 c[2,4,-1.0] >= -50019
 R2488: c[2,5,0.0] + c[2,5,-3.0] + c[2,5,-2.0] + c[2,5,-1.41504]
   + c[2,5,-1.0] = 1
 R2489: - m[2,0,20] - m[2,0,21] - m[2,0,22] - m[2,0,23] - m[2,1,20]
   - m[2,1,21] - m[2,1,22] - m[2,1,23] - 50000 c[2,5,0.0] >= -50000
 R2490: c[2,5,-3.0] = 0
 R2491: - m[2,0,20] - m[2,0,23] - m[2,1,22] - m[2,1,23] - 50000 c[2,5,-2.0]
   >= -50003
 R2492: m[2,0,20] + 2 m[2,0,23] + m[2,1,23] - 50000 c[2,5,-2.0] >= -49998
 R2493: 3 m[2,0,20] + m[2,0,23] + 4 m[2,1,22] + 2 m[2,1,23]
   - 50000 c[2,5,-2.0] >= -49995
 R2494: c[2,5,-1.41504] = 0
 R2495: - 6649 m[2,0,20] + 3 m[2,0,21] - 7 m[2,0,22] + 4 m[2,0,23]
   - 5 m[2,1,20] - m[2,1,21] + 6639 m[2,1,22] - 6648 m[2,1,23]
   - 50000 c[2,5,-1.0] >= -56657
 R2496: 10 m[2,0,20] + 2 m[2,0,21] - 6641 m[2,0,22] - 6649 m[2,0,23]
   + m[2,1,20] + 3 m[2,1,21] - 6647 m[2,1,22] - 3 m[2,1,23]
   - 50000 c[2,5,-1.0] >= -63289
 R2497: 6 m[2,0,20] - m[2,0,21] - 2 m[2,0,22] + 4 m[2,0,23] - 2 m[2,1,21]
   + 5 m[2,1,22] + 4 m[2,1,23] - 50000 c[2,5,-1.0] >= -49999
 R2498: - 17 m[2,0,20] - 4 m[2,0,21] + 5 m[2,0,22] - m[2,0,23]
   + 4 m[2,1,20] + 2 m[2,1,21] + 13 m[2,1,22] - 10 m[2,1,23]
   - 50000 c[2,5,-1.0] >= -50015
 R2499: - 2 m[2,0,20] + 4 m[2,0,21] + 11 m[2,0,22] - 2 m[2,0,23]
   + 9 m[2,1,20] + 9 m[2,1,21] + 14 m[2,1,22] + 14 m[2,1,23]
   - 50000 c[2,5,-1.0] >= -49984
 R2500: 5 m[2,0,20] + 2 m[2,0,21] + 2 m[2,0,22] + 4 m[2,0,23] + 3 m[2,1,21]
   + m[2,1,23] - 50000 c[2,5,-1.0] >= -49995
 R2501: - 3324 m[2,0,20] + m[2,0,21] + 3324 m[2,0,23] + m[2,1,20]
   - 583 m[2,1,21] - 584 m[2,1,22] - 2740 m[2,1,23] - 50000 c[2,5,-1.0]
   >= -53907
 R2502: 15 m[2,0,20] - 2 m[2,0,21] + 3 m[2,0,22] - 10 m[2,0,23] - m[2,1,20]
   - 3 m[2,1,21] - 11 m[2,1,22] - 5 m[2,1,23] - 50000 c[2,5,-1.0]
   >= -50017
 R2503: - 5 m[2,0,20] - 2 m[2,0,21] + m[2,0,22] - 10 m[2,0,23]
   - 3 m[2,1,20] - 3 m[2,1,21] - 11 m[2,1,22] + 15 m[2,1,23]
   - 50000 c[2,5,-1.0] >= -50019
 R2504: c[2,6,0.0] + c[2,6,-3.0] + c[2,6,-2.0] + c[2,6,-1.41504]
   + c[2,6,-1.0] = 1
 R2505: - m[2,0,24] - m[2,0,25] - m[2,0,26] - m[2,0,27] - m[2,1,24]
   - m[2,1,25] - m[2,1,26] - m[2,1,27] - 50000 c[2,6,0.0] >= -50000
 R2506: c[2,6,-3.0] = 0
 R2507: - m[2,0,24] - m[2,0,27] - m[2,1,26] - m[2,1,27] - 50000 c[2,6,-2.0]
   >= -50003
 R2508: m[2,0,24] + 2 m[2,0,27] + m[2,1,27] - 50000 c[2,6,-2.0] >= -49998
 R2509: 3 m[2,0,24] + m[2,0,27] + 4 m[2,1,26] + 2 m[2,1,27]
   - 50000 c[2,6,-2.0] >= -49995
 R2510: c[2,6,-1.41504] = 0
 R2511: - 6649 m[2,0,24] + 3 m[2,0,25] - 7 m[2,0,26] + 4 m[2,0,27]
   - 5 m[2,1,24] - m[2,1,25] + 6639 m[2,1,26] - 6648 m[2,1,27]
   - 50000 c[2,6,-1.0] >= -56657
 R2512: 10 m[2,0,24] + 2 m[2,0,25] - 6641 m[2,0,26] - 6649 m[2,0,27]
   + m[2,1,24] + 3 m[2,1,25] - 6647 m[2,1,26] - 3 m[2,1,27]
   - 50000 c[2,6,-1.0] >= -63289
 R2513: 6 m[2,0,24] - m[2,0,25] - 2 m[2,0,26] + 4 m[2,0,27] - 2 m[2,1,25]
   + 5 m[2,1,26] + 4 m[2,1,27] - 50000 c[2,6,-1.0] >= -49999
 R2514: - 17 m[2,0,24] - 4 m[2,0,25] + 5 m[2,0,26] - m[2,0,27]
   + 4 m[2,1,24] + 2 m[2,1,25] + 13 m[2,1,26] - 10 m[2,1,27]
   - 50000 c[2,6,-1.0] >= -50015
 R2515: - 2 m[2,0,24] + 4 m[2,0,25] + 11 m[2,0,26] - 2 m[2,0,27]
   + 9 m[2,1,24] + 9 m[2,1,25] + 14 m[2,1,26] + 14 m[2,1,27]
   - 50000 c[2,6,-1.0] >= -49984
 R2516: 5 m[2,0,24] + 2 m[2,0,25] + 2 m[2,0,26] + 4 m[2,0,27] + 3 m[2,1,25]
   + m[2,1,27] - 50000 c[2,6,-1.0] >= -49995
 R2517: - 3324 m[2,0,24] + m[2,0,25] + 3324 m[2,0,27] + m[2,1,24]
   - 583 m[2,1,25] - 584 m[2,1,26] - 2740 m[2,1,27] - 50000 c[2,6,-1.0]
   >= -53907
 R2518: 15 m[2,0,24] - 2 m[2,0,25] + 3 m[2,0,26] - 10 m[2,0,27] - m[2,1,24]
   - 3 m[2,1,25] - 11 m[2,1,26] - 5 m[2,1,27] - 50000 c[2,6,-1.0]
   >= -50017
 R2519: - 5 m[2,0,24] - 2 m[2,0,25] + m[2,0,26] - 10 m[2,0,27]
   - 3 m[2,1,24] - 3 m[2,1,25] - 11 m[2,1,26] + 15 m[2,1,27]
   - 50000 c[2,6,-1.0] >= -50019
 R2520: c[2,7,0.0] + c[2,7,-3.0] + c[2,7,-2.0] + c[2,7,-1.41504]
   + c[2,7,-1.0] = 1
 R2521: - m[2,0,28] - m[2,0,29] - m[2,0,30] - m[2,0,31] - m[2,1,28]
   - m[2,1,29] - m[2,1,30] - m[2,1,31] - 50000 c[2,7,0.0] >= -50000
 R2522: c[2,7,-3.0] = 0
 R2523: - m[2,0,28] - m[2,0,31] - m[2,1,30] - m[2,1,31] - 50000 c[2,7,-2.0]
   >= -50003
 R2524: m[2,0,28] + 2 m[2,0,31] + m[2,1,31] - 50000 c[2,7,-2.0] >= -49998
 R2525: 3 m[2,0,28] + m[2,0,31] + 4 m[2,1,30] + 2 m[2,1,31]
   - 50000 c[2,7,-2.0] >= -49995
 R2526: c[2,7,-1.41504] = 0
 R2527: - 6649 m[2,0,28] + 3 m[2,0,29] - 7 m[2,0,30] + 4 m[2,0,31]
   - 5 m[2,1,28] - m[2,1,29] + 6639 m[2,1,30] - 6648 m[2,1,31]
   - 50000 c[2,7,-1.0] >= -56657
 R2528: 10 m[2,0,28] + 2 m[2,0,29] - 6641 m[2,0,30] - 6649 m[2,0,31]
   + m[2,1,28] + 3 m[2,1,29] - 6647 m[2,1,30] - 3 m[2,1,31]
   - 50000 c[2,7,-1.0] >= -63289
 R2529: 6 m[2,0,28] - m[2,0,29] - 2 m[2,0,30] + 4 m[2,0,31] - 2 m[2,1,29]
   + 5 m[2,1,30] + 4 m[2,1,31] - 50000 c[2,7,-1.0] >= -49999
 R2530: - 17 m[2,0,28] - 4 m[2,0,29] + 5 m[2,0,30] - m[2,0,31]
   + 4 m[2,1,28] + 2 m[2,1,29] + 13 m[2,1,30] - 10 m[2,1,31]
   - 50000 c[2,7,-1.0] >= -50015
 R2531: - 2 m[2,0,28] + 4 m[2,0,29] + 11 m[2,0,30] - 2 m[2,0,31]
   + 9 m[2,1,28] + 9 m[2,1,29] + 14 m[2,1,30] + 14 m[2,1,31]
   - 50000 c[2,7,-1.0] >= -49984
 R2532: 5 m[2,0,28] + 2 m[2,0,29] + 2 m[2,0,30] + 4 m[2,0,31] + 3 m[2,1,29]
   + m[2,1,31] - 50000 c[2,7,-1.0] >= -49995
 R2533: - 3324 m[2,0,28] + m[2,0,29] + 3324 m[2,0,31] + m[2,1,28]
   - 583 m[2,1,29] - 584 m[2,1,30] - 2740 m[2,1,31] - 50000 c[2,7,-1.0]
   >= -53907
 R2534: 15 m[2,0,28] - 2 m[2,0,29] + 3 m[2,0,30] - 10 m[2,0,31] - m[2,1,28]
   - 3 m[2,1,29] - 11 m[2,1,30] - 5 m[2,1,31] - 50000 c[2,7,-1.0]
   >= -50017
 R2535: - 5 m[2,0,28] - 2 m[2,0,29] + m[2,0,30] - 10 m[2,0,31]
   - 3 m[2,1,28] - 3 m[2,1,29] - 11 m[2,1,30] + 15 m[2,1,31]
   - 50000 c[2,7,-1.0] >= -50019
 R2536: c[2,8,0.0] + c[2,8,-3.0] + c[2,8,-2.0] + c[2,8,-1.41504]
   + c[2,8,-1.0] = 1
 R2537: - m[2,0,32] - m[2,0,33] - m[2,0,34] - m[2,0,35] - m[2,1,32]
   - m[2,1,33] - m[2,1,34] - m[2,1,35] - 50000 c[2,8,0.0] >= -50000
 R2538: c[2,8,-3.0] = 0
 R2539: - m[2,0,32] - m[2,0,35] - m[2,1,34] - m[2,1,35] - 50000 c[2,8,-2.0]
   >= -50003
 R2540: m[2,0,32] + 2 m[2,0,35] + m[2,1,35] - 50000 c[2,8,-2.0] >= -49998
 R2541: 3 m[2,0,32] + m[2,0,35] + 4 m[2,1,34] + 2 m[2,1,35]
   - 50000 c[2,8,-2.0] >= -49995
 R2542: c[2,8,-1.41504] = 0
 R2543: - 6649 m[2,0,32] + 3 m[2,0,33] - 7 m[2,0,34] + 4 m[2,0,35]
   - 5 m[2,1,32] - m[2,1,33] + 6639 m[2,1,34] - 6648 m[2,1,35]
   - 50000 c[2,8,-1.0] >= -56657
 R2544: 10 m[2,0,32] + 2 m[2,0,33] - 6641 m[2,0,34] - 6649 m[2,0,35]
   + m[2,1,32] + 3 m[2,1,33] - 6647 m[2,1,34] - 3 m[2,1,35]
   - 50000 c[2,8,-1.0] >= -63289
 R2545: 6 m[2,0,32] - m[2,0,33] - 2 m[2,0,34] + 4 m[2,0,35] - 2 m[2,1,33]
   + 5 m[2,1,34] + 4 m[2,1,35] - 50000 c[2,8,-1.0] >= -49999
 R2546: - 17 m[2,0,32] - 4 m[2,0,33] + 5 m[2,0,34] - m[2,0,35]
   + 4 m[2,1,32] + 2 m[2,1,33] + 13 m[2,1,34] - 10 m[2,1,35]
   - 50000 c[2,8,-1.0] >= -50015
 R2547: - 2 m[2,0,32] + 4 m[2,0,33] + 11 m[2,0,34] - 2 m[2,0,35]
   + 9 m[2,1,32] + 9 m[2,1,33] + 14 m[2,1,34] + 14 m[2,1,35]
   - 50000 c[2,8,-1.0] >= -49984
 R2548: 5 m[2,0,32] + 2 m[2,0,33] + 2 m[2,0,34] + 4 m[2,0,35] + 3 m[2,1,33]
   + m[2,1,35] - 50000 c[2,8,-1.0] >= -49995
 R2549: - 3324 m[2,0,32] + m[2,0,33] + 3324 m[2,0,35] + m[2,1,32]
   - 583 m[2,1,33] - 584 m[2,1,34] - 2740 m[2,1,35] - 50000 c[2,8,-1.0]
   >= -53907
 R2550: 15 m[2,0,32] - 2 m[2,0,33] + 3 m[2,0,34] - 10 m[2,0,35] - m[2,1,32]
   - 3 m[2,1,33] - 11 m[2,1,34] - 5 m[2,1,35] - 50000 c[2,8,-1.0]
   >= -50017
 R2551: - 5 m[2,0,32] - 2 m[2,0,33] + m[2,0,34] - 10 m[2,0,35]
   - 3 m[2,1,32] - 3 m[2,1,33] - 11 m[2,1,34] + 15 m[2,1,35]
   - 50000 c[2,8,-1.0] >= -50019
 R2552: c[2,9,0.0] + c[2,9,-3.0] + c[2,9,-2.0] + c[2,9,-1.41504]
   + c[2,9,-1.0] = 1
 R2553: - m[2,0,36] - m[2,0,37] - m[2,0,38] - m[2,0,39] - m[2,1,36]
   - m[2,1,37] - m[2,1,38] - m[2,1,39] - 50000 c[2,9,0.0] >= -50000
 R2554: c[2,9,-3.0] = 0
 R2555: - m[2,0,36] - m[2,0,39] - m[2,1,38] - m[2,1,39] - 50000 c[2,9,-2.0]
   >= -50003
 R2556: m[2,0,36] + 2 m[2,0,39] + m[2,1,39] - 50000 c[2,9,-2.0] >= -49998
 R2557: 3 m[2,0,36] + m[2,0,39] + 4 m[2,1,38] + 2 m[2,1,39]
   - 50000 c[2,9,-2.0] >= -49995
 R2558: c[2,9,-1.41504] = 0
 R2559: - 6649 m[2,0,36] + 3 m[2,0,37] - 7 m[2,0,38] + 4 m[2,0,39]
   - 5 m[2,1,36] - m[2,1,37] + 6639 m[2,1,38] - 6648 m[2,1,39]
   - 50000 c[2,9,-1.0] >= -56657
 R2560: 10 m[2,0,36] + 2 m[2,0,37] - 6641 m[2,0,38] - 6649 m[2,0,39]
   + m[2,1,36] + 3 m[2,1,37] - 6647 m[2,1,38] - 3 m[2,1,39]
   - 50000 c[2,9,-1.0] >= -63289
 R2561: 6 m[2,0,36] - m[2,0,37] - 2 m[2,0,38] + 4 m[2,0,39] - 2 m[2,1,37]
   + 5 m[2,1,38] + 4 m[2,1,39] - 50000 c[2,9,-1.0] >= -49999
 R2562: - 17 m[2,0,36] - 4 m[2,0,37] + 5 m[2,0,38] - m[2,0,39]
   + 4 m[2,1,36] + 2 m[2,1,37] + 13 m[2,1,38] - 10 m[2,1,39]
   - 50000 c[2,9,-1.0] >= -50015
 R2563: - 2 m[2,0,36] + 4 m[2,0,37] + 11 m[2,0,38] - 2 m[2,0,39]
   + 9 m[2,1,36] + 9 m[2,1,37] + 14 m[2,1,38] + 14 m[2,1,39]
   - 50000 c[2,9,-1.0] >= -49984
 R2564: 5 m[2,0,36] + 2 m[2,0,37] + 2 m[2,0,38] + 4 m[2,0,39] + 3 m[2,1,37]
   + m[2,1,39] - 50000 c[2,9,-1.0] >= -49995
 R2565: - 3324 m[2,0,36] + m[2,0,37] + 3324 m[2,0,39] + m[2,1,36]
   - 583 m[2,1,37] - 584 m[2,1,38] - 2740 m[2,1,39] - 50000 c[2,9,-1.0]
   >= -53907
 R2566: 15 m[2,0,36] - 2 m[2,0,37] + 3 m[2,0,38] - 10 m[2,0,39] - m[2,1,36]
   - 3 m[2,1,37] - 11 m[2,1,38] - 5 m[2,1,39] - 50000 c[2,9,-1.0]
   >= -50017
 R2567: - 5 m[2,0,36] - 2 m[2,0,37] + m[2,0,38] - 10 m[2,0,39]
   - 3 m[2,1,36] - 3 m[2,1,37] - 11 m[2,1,38] + 15 m[2,1,39]
   - 50000 c[2,9,-1.0] >= -50019
 R2568: c[2,10,0.0] + c[2,10,-3.0] + c[2,10,-2.0] + c[2,10,-1.41504]
   + c[2,10,-1.0] = 1
 R2569: c[2,10,0.0] = 0
 R2570: c[2,10,-3.0] = 0
 R2571: - 5 m[2,0,41] + 4 m[2,0,42] - m[2,1,40] + 4 m[2,1,41] - m[2,1,42]
   + m[2,1,43] - 50000 c[2,10,-2.0] >= -50002
 R2572: 7978 m[2,0,41] + m[2,0,42] + 7979 m[2,1,40] + m[2,1,41]
   - 7979 m[2,1,42] + 7979 m[2,1,43] - 50000 c[2,10,-2.0] >= -50000
 R2573: m[2,0,41] - m[2,1,40] + m[2,1,42] + m[2,1,43] - 50000 c[2,10,-2.0]
   >= -50000
 R2574: - 5 m[2,0,41] - 4 m[2,0,42] + m[2,1,40] - 4 m[2,1,41] + m[2,1,42]
   + m[2,1,43] - 50000 c[2,10,-2.0] >= -50008
 R2575: - m[2,0,41] - m[2,1,40] + m[2,1,42] - m[2,1,43]
   - 50000 c[2,10,-2.0] >= -50002
 R2576: 5 m[2,0,41] + 4 m[2,0,42] + m[2,1,40] - 4 m[2,1,41] + m[2,1,42]
   - m[2,1,43] - 50000 c[2,10,-2.0] >= -50000
 R2577: 5 m[2,0,41] - 4 m[2,0,42] - m[2,1,40] + 4 m[2,1,41] - m[2,1,42]
   - m[2,1,43] - 50000 c[2,10,-2.0] >= -50002
 R2578: - 5 m[2,0,41] + 4 m[2,0,42] + m[2,1,40] + 4 m[2,1,41] - m[2,1,42]
   - m[2,1,43] - 50000 c[2,10,-2.0] >= -50002
 R2579: c[2,10,-1.41504] = 0
 R2580: c[2,10,-1.0] = 0
 R2581: c[2,11,0.0] + c[2,11,-3.0] + c[2,11,-2.0] + c[2,11,-1.41504]
   + c[2,11,-1.0] = 1
 R2582: - m[2,0,44] - m[2,0,45] - m[2,0,46] - m[2,0,47] - m[2,1,44]
   - m[2,1,45] - m[2,1,46] - m[2,1,47] - 50000 c[2,11,0.0] >= -50000
 R2583: c[2,11,-3.0] = 0
 R2584: - m[2,0,44] - m[2,0,47] - m[2,1,46] - m[2,1,47]
   - 50000 c[2,11,-2.0] >= -50003
 R2585: m[2,0,44] + 2 m[2,0,47] + m[2,1,47] - 50000 c[2,11,-2.0] >= -49998
 R2586: 3 m[2,0,44] + m[2,0,47] + 4 m[2,1,46] + 2 m[2,1,47]
   - 50000 c[2,11,-2.0] >= -49995
 R2587: c[2,11,-1.41504] = 0
 R2588: - 6649 m[2,0,44] + 3 m[2,0,45] - 7 m[2,0,46] + 4 m[2,0,47]
   - 5 m[2,1,44] - m[2,1,45] + 6639 m[2,1,46] - 6648 m[2,1,47]
   - 50000 c[2,11,-1.0] >= -56657
 R2589: 10 m[2,0,44] + 2 m[2,0,45] - 6641 m[2,0,46] - 6649 m[2,0,47]
   + m[2,1,44] + 3 m[2,1,45] - 6647 m[2,1,46] - 3 m[2,1,47]
   - 50000 c[2,11,-1.0] >= -63289
 R2590: 6 m[2,0,44] - m[2,0,45] - 2 m[2,0,46] + 4 m[2,0,47] - 2 m[2,1,45]
   + 5 m[2,1,46] + 4 m[2,1,47] - 50000 c[2,11,-1.0] >= -49999
 R2591: - 17 m[2,0,44] - 4 m[2,0,45] + 5 m[2,0,46] - m[2,0,47]
   + 4 m[2,1,44] + 2 m[2,1,45] + 13 m[2,1,46] - 10 m[2,1,47]
   - 50000 c[2,11,-1.0] >= -50015
 R2592: - 2 m[2,0,44] + 4 m[2,0,45] + 11 m[2,0,46] - 2 m[2,0,47]
   + 9 m[2,1,44] + 9 m[2,1,45] + 14 m[2,1,46] + 14 m[2,1,47]
   - 50000 c[2,11,-1.0] >= -49984
 R2593: 5 m[2,0,44] + 2 m[2,0,45] + 2 m[2,0,46] + 4 m[2,0,47] + 3 m[2,1,45]
   + m[2,1,47] - 50000 c[2,11,-1.0] >= -49995
 R2594: - 3324 m[2,0,44] + m[2,0,45] + 3324 m[2,0,47] + m[2,1,44]
   - 583 m[2,1,45] - 584 m[2,1,46] - 2740 m[2,1,47] - 50000 c[2,11,-1.0]
   >= -53907
 R2595: 15 m[2,0,44] - 2 m[2,0,45] + 3 m[2,0,46] - 10 m[2,0,47] - m[2,1,44]
   - 3 m[2,1,45] - 11 m[2,1,46] - 5 m[2,1,47] - 50000 c[2,11,-1.0]
   >= -50017
 R2596: - 5 m[2,0,44] - 2 m[2,0,45] + m[2,0,46] - 10 m[2,0,47]
   - 3 m[2,1,44] - 3 m[2,1,45] - 11 m[2,1,46] + 15 m[2,1,47]
   - 50000 c[2,11,-1.0] >= -50019
 R2597: c[2,12,0.0] + c[2,12,-3.0] + c[2,12,-2.0] + c[2,12,-1.41504]
   + c[2,12,-1.0] = 1
 R2598: - m[2,0,48] - m[2,0,49] - m[2,0,50] - m[2,0,51] - m[2,1,48]
   - m[2,1,49] - m[2,1,50] - m[2,1,51] - 50000 c[2,12,0.0] >= -50000
 R2599: c[2,12,-3.0] = 0
 R2600: - m[2,0,48] - m[2,0,51] - m[2,1,50] - m[2,1,51]
   - 50000 c[2,12,-2.0] >= -50003
 R2601: m[2,0,48] + 2 m[2,0,51] + m[2,1,51] - 50000 c[2,12,-2.0] >= -49998
 R2602: 3 m[2,0,48] + m[2,0,51] + 4 m[2,1,50] + 2 m[2,1,51]
   - 50000 c[2,12,-2.0] >= -49995
 R2603: c[2,12,-1.41504] = 0
 R2604: - 6649 m[2,0,48] + 3 m[2,0,49] - 7 m[2,0,50] + 4 m[2,0,51]
   - 5 m[2,1,48] - m[2,1,49] + 6639 m[2,1,50] - 6648 m[2,1,51]
   - 50000 c[2,12,-1.0] >= -56657
 R2605: 10 m[2,0,48] + 2 m[2,0,49] - 6641 m[2,0,50] - 6649 m[2,0,51]
   + m[2,1,48] + 3 m[2,1,49] - 6647 m[2,1,50] - 3 m[2,1,51]
   - 50000 c[2,12,-1.0] >= -63289
 R2606: 6 m[2,0,48] - m[2,0,49] - 2 m[2,0,50] + 4 m[2,0,51] - 2 m[2,1,49]
   + 5 m[2,1,50] + 4 m[2,1,51] - 50000 c[2,12,-1.0] >= -49999
 R2607: - 17 m[2,0,48] - 4 m[2,0,49] + 5 m[2,0,50] - m[2,0,51]
   + 4 m[2,1,48] + 2 m[2,1,49] + 13 m[2,1,50] - 10 m[2,1,51]
   - 50000 c[2,12,-1.0] >= -50015
 R2608: - 2 m[2,0,48] + 4 m[2,0,49] + 11 m[2,0,50] - 2 m[2,0,51]
   + 9 m[2,1,48] + 9 m[2,1,49] + 14 m[2,1,50] + 14 m[2,1,51]
   - 50000 c[2,12,-1.0] >= -49984
 R2609: 5 m[2,0,48] + 2 m[2,0,49] + 2 m[2,0,50] + 4 m[2,0,51] + 3 m[2,1,49]
   + m[2,1,51] - 50000 c[2,12,-1.0] >= -49995
 R2610: - 3324 m[2,0,48] + m[2,0,49] + 3324 m[2,0,51] + m[2,1,48]
   - 583 m[2,1,49] - 584 m[2,1,50] - 2740 m[2,1,51] - 50000 c[2,12,-1.0]
   >= -53907
 R2611: 15 m[2,0,48] - 2 m[2,0,49] + 3 m[2,0,50] - 10 m[2,0,51] - m[2,1,48]
   - 3 m[2,1,49] - 11 m[2,1,50] - 5 m[2,1,51] - 50000 c[2,12,-1.0]
   >= -50017
 R2612: - 5 m[2,0,48] - 2 m[2,0,49] + m[2,0,50] - 10 m[2,0,51]
   - 3 m[2,1,48] - 3 m[2,1,49] - 11 m[2,1,50] + 15 m[2,1,51]
   - 50000 c[2,12,-1.0] >= -50019
 R2613: c[2,13,0.0] + c[2,13,-3.0] + c[2,13,-2.0] + c[2,13,-1.41504]
   + c[2,13,-1.0] = 1
 R2614: - m[2,0,52] - m[2,0,53] - m[2,0,54] - m[2,0,55] - m[2,1,52]
   - m[2,1,53] - m[2,1,54] - m[2,1,55] - 50000 c[2,13,0.0] >= -50000
 R2615: c[2,13,-3.0] = 0
 R2616: - m[2,0,52] - m[2,0,55] - m[2,1,54] - m[2,1,55]
   - 50000 c[2,13,-2.0] >= -50003
 R2617: m[2,0,52] + 2 m[2,0,55] + m[2,1,55] - 50000 c[2,13,-2.0] >= -49998
 R2618: 3 m[2,0,52] + m[2,0,55] + 4 m[2,1,54] + 2 m[2,1,55]
   - 50000 c[2,13,-2.0] >= -49995
 R2619: c[2,13,-1.41504] = 0
 R2620: - 6649 m[2,0,52] + 3 m[2,0,53] - 7 m[2,0,54] + 4 m[2,0,55]
   - 5 m[2,1,52] - m[2,1,53] + 6639 m[2,1,54] - 6648 m[2,1,55]
   - 50000 c[2,13,-1.0] >= -56657
 R2621: 10 m[2,0,52] + 2 m[2,0,53] - 6641 m[2,0,54] - 6649 m[2,0,55]
   + m[2,1,52] + 3 m[2,1,53] - 6647 m[2,1,54] - 3 m[2,1,55]
   - 50000 c[2,13,-1.0] >= -63289
 R2622: 6 m[2,0,52] - m[2,0,53] - 2 m[2,0,54] + 4 m[2,0,55] - 2 m[2,1,53]
   + 5 m[2,1,54] + 4 m[2,1,55] - 50000 c[2,13,-1.0] >= -49999
 R2623: - 17 m[2,0,52] - 4 m[2,0,53] + 5 m[2,0,54] - m[2,0,55]
   + 4 m[2,1,52] + 2 m[2,1,53] + 13 m[2,1,54] - 10 m[2,1,55]
   - 50000 c[2,13,-1.0] >= -50015
 R2624: - 2 m[2,0,52] + 4 m[2,0,53] + 11 m[2,0,54] - 2 m[2,0,55]
   + 9 m[2,1,52] + 9 m[2,1,53] + 14 m[2,1,54] + 14 m[2,1,55]
   - 50000 c[2,13,-1.0] >= -49984
 R2625: 5 m[2,0,52] + 2 m[2,0,53] + 2 m[2,0,54] + 4 m[2,0,55] + 3 m[2,1,53]
   + m[2,1,55] - 50000 c[2,13,-1.0] >= -49995
 R2626: - 3324 m[2,0,52] + m[2,0,53] + 3324 m[2,0,55] + m[2,1,52]
   - 583 m[2,1,53] - 584 m[2,1,54] - 2740 m[2,1,55] - 50000 c[2,13,-1.0]
   >= -53907
 R2627: 15 m[2,0,52] - 2 m[2,0,53] + 3 m[2,0,54] - 10 m[2,0,55] - m[2,1,52]
   - 3 m[2,1,53] - 11 m[2,1,54] - 5 m[2,1,55] - 50000 c[2,13,-1.0]
   >= -50017
 R2628: - 5 m[2,0,52] - 2 m[2,0,53] + m[2,0,54] - 10 m[2,0,55]
   - 3 m[2,1,52] - 3 m[2,1,53] - 11 m[2,1,54] + 15 m[2,1,55]
   - 50000 c[2,13,-1.0] >= -50019
 R2629: c[2,14,0.0] + c[2,14,-3.0] + c[2,14,-2.0] + c[2,14,-1.41504]
   + c[2,14,-1.0] = 1
 R2630: - m[2,0,56] - m[2,0,57] - m[2,0,58] - m[2,0,59] - m[2,1,56]
   - m[2,1,57] - m[2,1,58] - m[2,1,59] - 50000 c[2,14,0.0] >= -50000
 R2631: c[2,14,-3.0] = 0
 R2632: - m[2,0,56] - m[2,0,59] - m[2,1,58] - m[2,1,59]
   - 50000 c[2,14,-2.0] >= -50003
 R2633: m[2,0,56] + 2 m[2,0,59] + m[2,1,59] - 50000 c[2,14,-2.0] >= -49998
 R2634: 3 m[2,0,56] + m[2,0,59] + 4 m[2,1,58] + 2 m[2,1,59]
   - 50000 c[2,14,-2.0] >= -49995
 R2635: c[2,14,-1.41504] = 0
 R2636: - 6649 m[2,0,56] + 3 m[2,0,57] - 7 m[2,0,58] + 4 m[2,0,59]
   - 5 m[2,1,56] - m[2,1,57] + 6639 m[2,1,58] - 6648 m[2,1,59]
   - 50000 c[2,14,-1.0] >= -56657
 R2637: 10 m[2,0,56] + 2 m[2,0,57] - 6641 m[2,0,58] - 6649 m[2,0,59]
   + m[2,1,56] + 3 m[2,1,57] - 6647 m[2,1,58] - 3 m[2,1,59]
   - 50000 c[2,14,-1.0] >= -63289
 R2638: 6 m[2,0,56] - m[2,0,57] - 2 m[2,0,58] + 4 m[2,0,59] - 2 m[2,1,57]
   + 5 m[2,1,58] + 4 m[2,1,59] - 50000 c[2,14,-1.0] >= -49999
 R2639: - 17 m[2,0,56] - 4 m[2,0,57] + 5 m[2,0,58] - m[2,0,59]
   + 4 m[2,1,56] + 2 m[2,1,57] + 13 m[2,1,58] - 10 m[2,1,59]
   - 50000 c[2,14,-1.0] >= -50015
 R2640: - 2 m[2,0,56] + 4 m[2,0,57] + 11 m[2,0,58] - 2 m[2,0,59]
   + 9 m[2,1,56] + 9 m[2,1,57] + 14 m[2,1,58] + 14 m[2,1,59]
   - 50000 c[2,14,-1.0] >= -49984
 R2641: 5 m[2,0,56] + 2 m[2,0,57] + 2 m[2,0,58] + 4 m[2,0,59] + 3 m[2,1,57]
   + m[2,1,59] - 50000 c[2,14,-1.0] >= -49995
 R2642: - 3324 m[2,0,56] + m[2,0,57] + 3324 m[2,0,59] + m[2,1,56]
   - 583 m[2,1,57] - 584 m[2,1,58] - 2740 m[2,1,59] - 50000 c[2,14,-1.0]
   >= -53907
 R2643: 15 m[2,0,56] - 2 m[2,0,57] + 3 m[2,0,58] - 10 m[2,0,59] - m[2,1,56]
   - 3 m[2,1,57] - 11 m[2,1,58] - 5 m[2,1,59] - 50000 c[2,14,-1.0]
   >= -50017
 R2644: - 5 m[2,0,56] - 2 m[2,0,57] + m[2,0,58] - 10 m[2,0,59]
   - 3 m[2,1,56] - 3 m[2,1,57] - 11 m[2,1,58] + 15 m[2,1,59]
   - 50000 c[2,14,-1.0] >= -50019
 R2645: c[2,15,0.0] + c[2,15,-3.0] + c[2,15,-2.0] + c[2,15,-1.41504]
   + c[2,15,-1.0] = 1
 R2646: c[2,15,0.0] = 0
 R2647: - m[2,0,61] - m[2,1,61] - m[2,1,62] - 50000 c[2,15,-3.0] >= -50002
 R2648: m[2,0,61] + m[2,1,61] - m[2,1,62] - 50000 c[2,15,-3.0] >= -50000
 R2649: m[2,0,61] - m[2,1,61] + m[2,1,62] - 50000 c[2,15,-3.0] >= -50000
 R2650: - m[2,0,61] + m[2,1,61] + m[2,1,62] - 50000 c[2,15,-3.0] >= -50000
 R2651: c[2,15,-2.0] = 0
 R2652: c[2,15,-1.41504] = 0
 R2653: c[2,15,-1.0] = 0
 R2654: c[3,0,0.0] + c[3,0,-3.0] + c[3,0,-2.0] + c[3,0,-1.41504]
   + c[3,0,-1.0] = 1
 R2655: c[3,0,0.0] = 0
 R2656: - m[3,0,1] - m[3,1,1] - m[3,1,2] - 50000 c[3,0,-3.0] >= -50002
 R2657: m[3,0,1] + m[3,1,1] - m[3,1,2] - 50000 c[3,0,-3.0] >= -50000
 R2658: m[3,0,1] - m[3,1,1] + m[3,1,2] - 50000 c[3,0,-3.0] >= -50000
 R2659: - m[3,0,1] + m[3,1,1] + m[3,1,2] - 50000 c[3,0,-3.0] >= -50000
 R2660: c[3,0,-2.0] = 0
 R2661: c[3,0,-1.41504] = 0
 R2662: c[3,0,-1.0] = 0
 R2663: c[3,1,0.0] + c[3,1,-3.0] + c[3,1,-2.0] + c[3,1,-1.41504]
   + c[3,1,-1.0] = 1
 R2664: - m[3,0,4] - m[3,0,5] - m[3,0,6] - m[3,0,7] - m[3,1,4] - m[3,1,5]
   - m[3,1,6] - m[3,1,7] - 50000 c[3,1,0.0] >= -50000
 R2665: c[3,1,-3.0] = 0
 R2666: - m[3,0,4] - m[3,0,7] - m[3,1,6] - m[3,1,7] - 50000 c[3,1,-2.0]
   >= -50003
 R2667: m[3,0,4] + 2 m[3,0,7] + m[3,1,7] - 50000 c[3,1,-2.0] >= -49998
 R2668: 3 m[3,0,4] + m[3,0,7] + 4 m[3,1,6] + 2 m[3,1,7] - 50000 c[3,1,-2.0]
   >= -49995
 R2669: c[3,1,-1.41504] = 0
 R2670: - 6649 m[3,0,4] + 3 m[3,0,5] - 7 m[3,0,6] + 4 m[3,0,7] - 5 m[3,1,4]
   - m[3,1,5] + 6639 m[3,1,6] - 6648 m[3,1,7] - 50000 c[3,1,-1.0]
   >= -56657
 R2671: 10 m[3,0,4] + 2 m[3,0,5] - 6641 m[3,0,6] - 6649 m[3,0,7] + m[3,1,4]
   + 3 m[3,1,5] - 6647 m[3,1,6] - 3 m[3,1,7] - 50000 c[3,1,-1.0] >= -63289
 R2672: 6 m[3,0,4] - m[3,0,5] - 2 m[3,0,6] + 4 m[3,0,7] - 2 m[3,1,5]
   + 5 m[3,1,6] + 4 m[3,1,7] - 50000 c[3,1,-1.0] >= -49999
 R2673: - 17 m[3,0,4] - 4 m[3,0,5] + 5 m[3,0,6] - m[3,0,7] + 4 m[3,1,4]
   + 2 m[3,1,5] + 13 m[3,1,6] - 10 m[3,1,7] - 50000 c[3,1,-1.0] >= -50015
 R2674: - 2 m[3,0,4] + 4 m[3,0,5] + 11 m[3,0,6] - 2 m[3,0,7] + 9 m[3,1,4]
   + 9 m[3,1,5] + 14 m[3,1,6] + 14 m[3,1,7] - 50000 c[3,1,-1.0] >= -49984
 R2675: 5 m[3,0,4] + 2 m[3,0,5] + 2 m[3,0,6] + 4 m[3,0,7] + 3 m[3,1,5]
   + m[3,1,7] - 50000 c[3,1,-1.0] >= -49995
 R2676: - 3324 m[3,0,4] + m[3,0,5] + 3324 m[3,0,7] + m[3,1,4]
   - 583 m[3,1,5] - 584 m[3,1,6] - 2740 m[3,1,7] - 50000 c[3,1,-1.0]
   >= -53907
 R2677: 15 m[3,0,4] - 2 m[3,0,5] + 3 m[3,0,6] - 10 m[3,0,7] - m[3,1,4]
   - 3 m[3,1,5] - 11 m[3,1,6] - 5 m[3,1,7] - 50000 c[3,1,-1.0] >= -50017
 R2678: - 5 m[3,0,4] - 2 m[3,0,5] + m[3,0,6] - 10 m[3,0,7] - 3 m[3,1,4]
   - 3 m[3,1,5] - 11 m[3,1,6] + 15 m[3,1,7] - 50000 c[3,1,-1.0] >= -50019
 R2679: c[3,2,0.0] + c[3,2,-3.0] + c[3,2,-2.0] + c[3,2,-1.41504]
   + c[3,2,-1.0] = 1
 R2680: - m[3,0,8] - m[3,0,9] - m[3,0,10] - m[3,0,11] - m[3,1,8] - m[3,1,9]
   - m[3,1,10] - m[3,1,11] - 50000 c[3,2,0.0] >= -50000
 R2681: c[3,2,-3.0] = 0
 R2682: - m[3,0,8] - m[3,0,11] - m[3,1,10] - m[3,1,11] - 50000 c[3,2,-2.0]
   >= -50003
 R2683: m[3,0,8] + 2 m[3,0,11] + m[3,1,11] - 50000 c[3,2,-2.0] >= -49998
 R2684: 3 m[3,0,8] + m[3,0,11] + 4 m[3,1,10] + 2 m[3,1,11]
   - 50000 c[3,2,-2.0] >= -49995
 R2685: c[3,2,-1.41504] = 0
 R2686: - 6649 m[3,0,8] + 3 m[3,0,9] - 7 m[3,0,10] + 4 m[3,0,11]
   - 5 m[3,1,8] - m[3,1,9] + 6639 m[3,1,10] - 6648 m[3,1,11]
   - 50000 c[3,2,-1.0] >= -56657
 R2687: 10 m[3,0,8] + 2 m[3,0,9] - 6641 m[3,0,10] - 6649 m[3,0,11]
   + m[3,1,8] + 3 m[3,1,9] - 6647 m[3,1,10] - 3 m[3,1,11]
   - 50000 c[3,2,-1.0] >= -63289
 R2688: 6 m[3,0,8] - m[3,0,9] - 2 m[3,0,10] + 4 m[3,0,11] - 2 m[3,1,9]
   + 5 m[3,1,10] + 4 m[3,1,11] - 50000 c[3,2,-1.0] >= -49999
 R2689: - 17 m[3,0,8] - 4 m[3,0,9] + 5 m[3,0,10] - m[3,0,11] + 4 m[3,1,8]
   + 2 m[3,1,9] + 13 m[3,1,10] - 10 m[3,1,11] - 50000 c[3,2,-1.0]
   >= -50015
 R2690: - 2 m[3,0,8] + 4 m[3,0,9] + 11 m[3,0,10] - 2 m[3,0,11] + 9 m[3,1,8]
   + 9 m[3,1,9] + 14 m[3,1,10] + 14 m[3,1,11] - 50000 c[3,2,-1.0]
   >= -49984
 R2691: 5 m[3,0,8] + 2 m[3,0,9] + 2 m[3,0,10] + 4 m[3,0,11] + 3 m[3,1,9]
   + m[3,1,11] - 50000 c[3,2,-1.0] >= -49995
 R2692: - 3324 m[3,0,8] + m[3,0,9] + 3324 m[3,0,11] + m[3,1,8]
   - 583 m[3,1,9] - 584 m[3,1,10] - 2740 m[3,1,11] - 50000 c[3,2,-1.0]
   >= -53907
 R2693: 15 m[3,0,8] - 2 m[3,0,9] + 3 m[3,0,10] - 10 m[3,0,11] - m[3,1,8]
   - 3 m[3,1,9] - 11 m[3,1,10] - 5 m[3,1,11] - 50000 c[3,2,-1.0] >= -50017
 R2694: - 5 m[3,0,8] - 2 m[3,0,9] + m[3,0,10] - 10 m[3,0,11] - 3 m[3,1,8]
   - 3 m[3,1,9] - 11 m[3,1,10] + 15 m[3,1,11] - 50000 c[3,2,-1.0]
   >= -50019
 R2695: c[3,3,0.0] + c[3,3,-3.0] + c[3,3,-2.0] + c[3,3,-1.41504]
   + c[3,3,-1.0] = 1
 R2696: - m[3,0,12] - m[3,0,13] - m[3,0,14] - m[3,0,15] - m[3,1,12]
   - m[3,1,13] - m[3,1,14] - m[3,1,15] - 50000 c[3,3,0.0] >= -50000
 R2697: c[3,3,-3.0] = 0
 R2698: - m[3,0,12] - m[3,0,15] - m[3,1,14] - m[3,1,15] - 50000 c[3,3,-2.0]
   >= -50003
 R2699: m[3,0,12] + 2 m[3,0,15] + m[3,1,15] - 50000 c[3,3,-2.0] >= -49998
 R2700: 3 m[3,0,12] + m[3,0,15] + 4 m[3,1,14] + 2 m[3,1,15]
   - 50000 c[3,3,-2.0] >= -49995
 R2701: c[3,3,-1.41504] = 0
 R2702: - 6649 m[3,0,12] + 3 m[3,0,13] - 7 m[3,0,14] + 4 m[3,0,15]
   - 5 m[3,1,12] - m[3,1,13] + 6639 m[3,1,14] - 6648 m[3,1,15]
   - 50000 c[3,3,-1.0] >= -56657
 R2703: 10 m[3,0,12] + 2 m[3,0,13] - 6641 m[3,0,14] - 6649 m[3,0,15]
   + m[3,1,12] + 3 m[3,1,13] - 6647 m[3,1,14] - 3 m[3,1,15]
   - 50000 c[3,3,-1.0] >= -63289
 R2704: 6 m[3,0,12] - m[3,0,13] - 2 m[3,0,14] + 4 m[3,0,15] - 2 m[3,1,13]
   + 5 m[3,1,14] + 4 m[3,1,15] - 50000 c[3,3,-1.0] >= -49999
 R2705: - 17 m[3,0,12] - 4 m[3,0,13] + 5 m[3,0,14] - m[3,0,15]
   + 4 m[3,1,12] + 2 m[3,1,13] + 13 m[3,1,14] - 10 m[3,1,15]
   - 50000 c[3,3,-1.0] >= -50015
 R2706: - 2 m[3,0,12] + 4 m[3,0,13] + 11 m[3,0,14] - 2 m[3,0,15]
   + 9 m[3,1,12] + 9 m[3,1,13] + 14 m[3,1,14] + 14 m[3,1,15]
   - 50000 c[3,3,-1.0] >= -49984
 R2707: 5 m[3,0,12] + 2 m[3,0,13] + 2 m[3,0,14] + 4 m[3,0,15] + 3 m[3,1,13]
   + m[3,1,15] - 50000 c[3,3,-1.0] >= -49995
 R2708: - 3324 m[3,0,12] + m[3,0,13] + 3324 m[3,0,15] + m[3,1,12]
   - 583 m[3,1,13] - 584 m[3,1,14] - 2740 m[3,1,15] - 50000 c[3,3,-1.0]
   >= -53907
 R2709: 15 m[3,0,12] - 2 m[3,0,13] + 3 m[3,0,14] - 10 m[3,0,15] - m[3,1,12]
   - 3 m[3,1,13] - 11 m[3,1,14] - 5 m[3,1,15] - 50000 c[3,3,-1.0]
   >= -50017
 R2710: - 5 m[3,0,12] - 2 m[3,0,13] + m[3,0,14] - 10 m[3,0,15]
   - 3 m[3,1,12] - 3 m[3,1,13] - 11 m[3,1,14] + 15 m[3,1,15]
   - 50000 c[3,3,-1.0] >= -50019
 R2711: c[3,4,0.0] + c[3,4,-3.0] + c[3,4,-2.0] + c[3,4,-1.41504]
   + c[3,4,-1.0] = 1
 R2712: - m[3,0,16] - m[3,0,17] - m[3,0,18] - m[3,0,19] - m[3,1,16]
   - m[3,1,17] - m[3,1,18] - m[3,1,19] - 50000 c[3,4,0.0] >= -50000
 R2713: c[3,4,-3.0] = 0
 R2714: - m[3,0,16] - m[3,0,19] - m[3,1,18] - m[3,1,19] - 50000 c[3,4,-2.0]
   >= -50003
 R2715: m[3,0,16] + 2 m[3,0,19] + m[3,1,19] - 50000 c[3,4,-2.0] >= -49998
 R2716: 3 m[3,0,16] + m[3,0,19] + 4 m[3,1,18] + 2 m[3,1,19]
   - 50000 c[3,4,-2.0] >= -49995
 R2717: c[3,4,-1.41504] = 0
 R2718: - 6649 m[3,0,16] + 3 m[3,0,17] - 7 m[3,0,18] + 4 m[3,0,19]
   - 5 m[3,1,16] - m[3,1,17] + 6639 m[3,1,18] - 6648 m[3,1,19]
   - 50000 c[3,4,-1.0] >= -56657
 R2719: 10 m[3,0,16] + 2 m[3,0,17] - 6641 m[3,0,18] - 6649 m[3,0,19]
   + m[3,1,16] + 3 m[3,1,17] - 6647 m[3,1,18] - 3 m[3,1,19]
   - 50000 c[3,4,-1.0] >= -63289
 R2720: 6 m[3,0,16] - m[3,0,17] - 2 m[3,0,18] + 4 m[3,0,19] - 2 m[3,1,17]
   + 5 m[3,1,18] + 4 m[3,1,19] - 50000 c[3,4,-1.0] >= -49999
 R2721: - 17 m[3,0,16] - 4 m[3,0,17] + 5 m[3,0,18] - m[3,0,19]
   + 4 m[3,1,16] + 2 m[3,1,17] + 13 m[3,1,18] - 10 m[3,1,19]
   - 50000 c[3,4,-1.0] >= -50015
 R2722: - 2 m[3,0,16] + 4 m[3,0,17] + 11 m[3,0,18] - 2 m[3,0,19]
   + 9 m[3,1,16] + 9 m[3,1,17] + 14 m[3,1,18] + 14 m[3,1,19]
   - 50000 c[3,4,-1.0] >= -49984
 R2723: 5 m[3,0,16] + 2 m[3,0,17] + 2 m[3,0,18] + 4 m[3,0,19] + 3 m[3,1,17]
   + m[3,1,19] - 50000 c[3,4,-1.0] >= -49995
 R2724: - 3324 m[3,0,16] + m[3,0,17] + 3324 m[3,0,19] + m[3,1,16]
   - 583 m[3,1,17] - 584 m[3,1,18] - 2740 m[3,1,19] - 50000 c[3,4,-1.0]
   >= -53907
 R2725: 15 m[3,0,16] - 2 m[3,0,17] + 3 m[3,0,18] - 10 m[3,0,19] - m[3,1,16]
   - 3 m[3,1,17] - 11 m[3,1,18] - 5 m[3,1,19] - 50000 c[3,4,-1.0]
   >= -50017
 R2726: - 5 m[3,0,16] - 2 m[3,0,17] + m[3,0,18] - 10 m[3,0,19]
   - 3 m[3,1,16] - 3 m[3,1,17] - 11 m[3,1,18] + 15 m[3,1,19]
   - 50000 c[3,4,-1.0] >= -50019
 R2727: c[3,5,0.0] + c[3,5,-3.0] + c[3,5,-2.0] + c[3,5,-1.41504]
   + c[3,5,-1.0] = 1
 R2728: - m[3,0,20] - m[3,0,21] - m[3,0,22] - m[3,0,23] - m[3,1,20]
   - m[3,1,21] - m[3,1,22] - m[3,1,23] - 50000 c[3,5,0.0] >= -50000
 R2729: c[3,5,-3.0] = 0
 R2730: - m[3,0,20] - m[3,0,23] - m[3,1,22] - m[3,1,23] - 50000 c[3,5,-2.0]
   >= -50003
 R2731: m[3,0,20] + 2 m[3,0,23] + m[3,1,23] - 50000 c[3,5,-2.0] >= -49998
 R2732: 3 m[3,0,20] + m[3,0,23] + 4 m[3,1,22] + 2 m[3,1,23]
   - 50000 c[3,5,-2.0] >= -49995
 R2733: c[3,5,-1.41504] = 0
 R2734: - 6649 m[3,0,20] + 3 m[3,0,21] - 7 m[3,0,22] + 4 m[3,0,23]
   - 5 m[3,1,20] - m[3,1,21] + 6639 m[3,1,22] - 6648 m[3,1,23]
   - 50000 c[3,5,-1.0] >= -56657
 R2735: 10 m[3,0,20] + 2 m[3,0,21] - 6641 m[3,0,22] - 6649 m[3,0,23]
   + m[3,1,20] + 3 m[3,1,21] - 6647 m[3,1,22] - 3 m[3,1,23]
   - 50000 c[3,5,-1.0] >= -63289
 R2736: 6 m[3,0,20] - m[3,0,21] - 2 m[3,0,22] + 4 m[3,0,23] - 2 m[3,1,21]
   + 5 m[3,1,22] + 4 m[3,1,23] - 50000 c[3,5,-1.0] >= -49999
 R2737: - 17 m[3,0,20] - 4 m[3,0,21] + 5 m[3,0,22] - m[3,0,23]
   + 4 m[3,1,20] + 2 m[3,1,21] + 13 m[3,1,22] - 10 m[3,1,23]
   - 50000 c[3,5,-1.0] >= -50015
 R2738: - 2 m[3,0,20] + 4 m[3,0,21] + 11 m[3,0,22] - 2 m[3,0,23]
   + 9 m[3,1,20] + 9 m[3,1,21] + 14 m[3,1,22] + 14 m[3,1,23]
   - 50000 c[3,5,-1.0] >= -49984
 R2739: 5 m[3,0,20] + 2 m[3,0,21] + 2 m[3,0,22] + 4 m[3,0,23] + 3 m[3,1,21]
   + m[3,1,23] - 50000 c[3,5,-1.0] >= -49995
 R2740: - 3324 m[3,0,20] + m[3,0,21] + 3324 m[3,0,23] + m[3,1,20]
   - 583 m[3,1,21] - 584 m[3,1,22] - 2740 m[3,1,23] - 50000 c[3,5,-1.0]
   >= -53907
 R2741: 15 m[3,0,20] - 2 m[3,0,21] + 3 m[3,0,22] - 10 m[3,0,23] - m[3,1,20]
   - 3 m[3,1,21] - 11 m[3,1,22] - 5 m[3,1,23] - 50000 c[3,5,-1.0]
   >= -50017
 R2742: - 5 m[3,0,20] - 2 m[3,0,21] + m[3,0,22] - 10 m[3,0,23]
   - 3 m[3,1,20] - 3 m[3,1,21] - 11 m[3,1,22] + 15 m[3,1,23]
   - 50000 c[3,5,-1.0] >= -50019
 R2743: c[3,6,0.0] + c[3,6,-3.0] + c[3,6,-2.0] + c[3,6,-1.41504]
   + c[3,6,-1.0] = 1
 R2744: - m[3,0,24] - m[3,0,25] - m[3,0,26] - m[3,0,27] - m[3,1,24]
   - m[3,1,25] - m[3,1,26] - m[3,1,27] - 50000 c[3,6,0.0] >= -50000
 R2745: c[3,6,-3.0] = 0
 R2746: - m[3,0,24] - m[3,0,27] - m[3,1,26] - m[3,1,27] - 50000 c[3,6,-2.0]
   >= -50003
 R2747: m[3,0,24] + 2 m[3,0,27] + m[3,1,27] - 50000 c[3,6,-2.0] >= -49998
 R2748: 3 m[3,0,24] + m[3,0,27] + 4 m[3,1,26] + 2 m[3,1,27]
   - 50000 c[3,6,-2.0] >= -49995
 R2749: c[3,6,-1.41504] = 0
 R2750: - 6649 m[3,0,24] + 3 m[3,0,25] - 7 m[3,0,26] + 4 m[3,0,27]
   - 5 m[3,1,24] - m[3,1,25] + 6639 m[3,1,26] - 6648 m[3,1,27]
   - 50000 c[3,6,-1.0] >= -56657
 R2751: 10 m[3,0,24] + 2 m[3,0,25] - 6641 m[3,0,26] - 6649 m[3,0,27]
   + m[3,1,24] + 3 m[3,1,25] - 6647 m[3,1,26] - 3 m[3,1,27]
   - 50000 c[3,6,-1.0] >= -63289
 R2752: 6 m[3,0,24] - m[3,0,25] - 2 m[3,0,26] + 4 m[3,0,27] - 2 m[3,1,25]
   + 5 m[3,1,26] + 4 m[3,1,27] - 50000 c[3,6,-1.0] >= -49999
 R2753: - 17 m[3,0,24] - 4 m[3,0,25] + 5 m[3,0,26] - m[3,0,27]
   + 4 m[3,1,24] + 2 m[3,1,25] + 13 m[3,1,26] - 10 m[3,1,27]
   - 50000 c[3,6,-1.0] >= -50015
 R2754: - 2 m[3,0,24] + 4 m[3,0,25] + 11 m[3,0,26] - 2 m[3,0,27]
   + 9 m[3,1,24] + 9 m[3,1,25] + 14 m[3,1,26] + 14 m[3,1,27]
   - 50000 c[3,6,-1.0] >= -49984
 R2755: 5 m[3,0,24] + 2 m[3,0,25] + 2 m[3,0,26] + 4 m[3,0,27] + 3 m[3,1,25]
   + m[3,1,27] - 50000 c[3,6,-1.0] >= -49995
 R2756: - 3324 m[3,0,24] + m[3,0,25] + 3324 m[3,0,27] + m[3,1,24]
   - 583 m[3,1,25] - 584 m[3,1,26] - 2740 m[3,1,27] - 50000 c[3,6,-1.0]
   >= -53907
 R2757: 15 m[3,0,24] - 2 m[3,0,25] + 3 m[3,0,26] - 10 m[3,0,27] - m[3,1,24]
   - 3 m[3,1,25] - 11 m[3,1,26] - 5 m[3,1,27] - 50000 c[3,6,-1.0]
   >= -50017
 R2758: - 5 m[3,0,24] - 2 m[3,0,25] + m[3,0,26] - 10 m[3,0,27]
   - 3 m[3,1,24] - 3 m[3,1,25] - 11 m[3,1,26] + 15 m[3,1,27]
   - 50000 c[3,6,-1.0] >= -50019
 R2759: c[3,7,0.0] + c[3,7,-3.0] + c[3,7,-2.0] + c[3,7,-1.41504]
   + c[3,7,-1.0] = 1
 R2760: - m[3,0,28] - m[3,0,29] - m[3,0,30] - m[3,0,31] - m[3,1,28]
   - m[3,1,29] - m[3,1,30] - m[3,1,31] - 50000 c[3,7,0.0] >= -50000
 R2761: c[3,7,-3.0] = 0
 R2762: - m[3,0,28] - m[3,0,31] - m[3,1,30] - m[3,1,31] - 50000 c[3,7,-2.0]
   >= -50003
 R2763: m[3,0,28] + 2 m[3,0,31] + m[3,1,31] - 50000 c[3,7,-2.0] >= -49998
 R2764: 3 m[3,0,28] + m[3,0,31] + 4 m[3,1,30] + 2 m[3,1,31]
   - 50000 c[3,7,-2.0] >= -49995
 R2765: c[3,7,-1.41504] = 0
 R2766: - 6649 m[3,0,28] + 3 m[3,0,29] - 7 m[3,0,30] + 4 m[3,0,31]
   - 5 m[3,1,28] - m[3,1,29] + 6639 m[3,1,30] - 6648 m[3,1,31]
   - 50000 c[3,7,-1.0] >= -56657
 R2767: 10 m[3,0,28] + 2 m[3,0,29] - 6641 m[3,0,30] - 6649 m[3,0,31]
   + m[3,1,28] + 3 m[3,1,29] - 6647 m[3,1,30] - 3 m[3,1,31]
   - 50000 c[3,7,-1.0] >= -63289
 R2768: 6 m[3,0,28] - m[3,0,29] - 2 m[3,0,30] + 4 m[3,0,31] - 2 m[3,1,29]
   + 5 m[3,1,30] + 4 m[3,1,31] - 50000 c[3,7,-1.0] >= -49999
 R2769: - 17 m[3,0,28] - 4 m[3,0,29] + 5 m[3,0,30] - m[3,0,31]
   + 4 m[3,1,28] + 2 m[3,1,29] + 13 m[3,1,30] - 10 m[3,1,31]
   - 50000 c[3,7,-1.0] >= -50015
 R2770: - 2 m[3,0,28] + 4 m[3,0,29] + 11 m[3,0,30] - 2 m[3,0,31]
   + 9 m[3,1,28] + 9 m[3,1,29] + 14 m[3,1,30] + 14 m[3,1,31]
   - 50000 c[3,7,-1.0] >= -49984
 R2771: 5 m[3,0,28] + 2 m[3,0,29] + 2 m[3,0,30] + 4 m[3,0,31] + 3 m[3,1,29]
   + m[3,1,31] - 50000 c[3,7,-1.0] >= -49995
 R2772: - 3324 m[3,0,28] + m[3,0,29] + 3324 m[3,0,31] + m[3,1,28]
   - 583 m[3,1,29] - 584 m[3,1,30] - 2740 m[3,1,31] - 50000 c[3,7,-1.0]
   >= -53907
 R2773: 15 m[3,0,28] - 2 m[3,0,29] + 3 m[3,0,30] - 10 m[3,0,31] - m[3,1,28]
   - 3 m[3,1,29] - 11 m[3,1,30] - 5 m[3,1,31] - 50000 c[3,7,-1.0]
   >= -50017
 R2774: - 5 m[3,0,28] - 2 m[3,0,29] + m[3,0,30] - 10 m[3,0,31]
   - 3 m[3,1,28] - 3 m[3,1,29] - 11 m[3,1,30] + 15 m[3,1,31]
   - 50000 c[3,7,-1.0] >= -50019
 R2775: c[3,8,0.0] + c[3,8,-3.0] + c[3,8,-2.0] + c[3,8,-1.41504]
   + c[3,8,-1.0] = 1
 R2776: - m[3,0,32] - m[3,0,33] - m[3,0,34] - m[3,0,35] - m[3,1,32]
   - m[3,1,33] - m[3,1,34] - m[3,1,35] - 50000 c[3,8,0.0] >= -50000
 R2777: c[3,8,-3.0] = 0
 R2778: - m[3,0,32] - m[3,0,35] - m[3,1,34] - m[3,1,35] - 50000 c[3,8,-2.0]
   >= -50003
 R2779: m[3,0,32] + 2 m[3,0,35] + m[3,1,35] - 50000 c[3,8,-2.0] >= -49998
 R2780: 3 m[3,0,32] + m[3,0,35] + 4 m[3,1,34] + 2 m[3,1,35]
   - 50000 c[3,8,-2.0] >= -49995
 R2781: c[3,8,-1.41504] = 0
 R2782: - 6649 m[3,0,32] + 3 m[3,0,33] - 7 m[3,0,34] + 4 m[3,0,35]
   - 5 m[3,1,32] - m[3,1,33] + 6639 m[3,1,34] - 6648 m[3,1,35]
   - 50000 c[3,8,-1.0] >= -56657
 R2783: 10 m[3,0,32] + 2 m[3,0,33] - 6641 m[3,0,34] - 6649 m[3,0,35]
   + m[3,1,32] + 3 m[3,1,33] - 6647 m[3,1,34] - 3 m[3,1,35]
   - 50000 c[3,8,-1.0] >= -63289
 R2784: 6 m[3,0,32] - m[3,0,33] - 2 m[3,0,34] + 4 m[3,0,35] - 2 m[3,1,33]
   + 5 m[3,1,34] + 4 m[3,1,35] - 50000 c[3,8,-1.0] >= -49999
 R2785: - 17 m[3,0,32] - 4 m[3,0,33] + 5 m[3,0,34] - m[3,0,35]
   + 4 m[3,1,32] + 2 m[3,1,33] + 13 m[3,1,34] - 10 m[3,1,35]
   - 50000 c[3,8,-1.0] >= -50015
 R2786: - 2 m[3,0,32] + 4 m[3,0,33] + 11 m[3,0,34] - 2 m[3,0,35]
   + 9 m[3,1,32] + 9 m[3,1,33] + 14 m[3,1,34] + 14 m[3,1,35]
   - 50000 c[3,8,-1.0] >= -49984
 R2787: 5 m[3,0,32] + 2 m[3,0,33] + 2 m[3,0,34] + 4 m[3,0,35] + 3 m[3,1,33]
   + m[3,1,35] - 50000 c[3,8,-1.0] >= -49995
 R2788: - 3324 m[3,0,32] + m[3,0,33] + 3324 m[3,0,35] + m[3,1,32]
   - 583 m[3,1,33] - 584 m[3,1,34] - 2740 m[3,1,35] - 50000 c[3,8,-1.0]
   >= -53907
 R2789: 15 m[3,0,32] - 2 m[3,0,33] + 3 m[3,0,34] - 10 m[3,0,35] - m[3,1,32]
   - 3 m[3,1,33] - 11 m[3,1,34] - 5 m[3,1,35] - 50000 c[3,8,-1.0]
   >= -50017
 R2790: - 5 m[3,0,32] - 2 m[3,0,33] + m[3,0,34] - 10 m[3,0,35]
   - 3 m[3,1,32] - 3 m[3,1,33] - 11 m[3,1,34] + 15 m[3,1,35]
   - 50000 c[3,8,-1.0] >= -50019
 R2791: c[3,9,0.0] + c[3,9,-3.0] + c[3,9,-2.0] + c[3,9,-1.41504]
   + c[3,9,-1.0] = 1
 R2792: - m[3,0,36] - m[3,0,37] - m[3,0,38] - m[3,0,39] - m[3,1,36]
   - m[3,1,37] - m[3,1,38] - m[3,1,39] - 50000 c[3,9,0.0] >= -50000
 R2793: c[3,9,-3.0] = 0
 R2794: - m[3,0,36] - m[3,0,39] - m[3,1,38] - m[3,1,39] - 50000 c[3,9,-2.0]
   >= -50003
 R2795: m[3,0,36] + 2 m[3,0,39] + m[3,1,39] - 50000 c[3,9,-2.0] >= -49998
 R2796: 3 m[3,0,36] + m[3,0,39] + 4 m[3,1,38] + 2 m[3,1,39]
   - 50000 c[3,9,-2.0] >= -49995
 R2797: c[3,9,-1.41504] = 0
 R2798: - 6649 m[3,0,36] + 3 m[3,0,37] - 7 m[3,0,38] + 4 m[3,0,39]
   - 5 m[3,1,36] - m[3,1,37] + 6639 m[3,1,38] - 6648 m[3,1,39]
   - 50000 c[3,9,-1.0] >= -56657
 R2799: 10 m[3,0,36] + 2 m[3,0,37] - 6641 m[3,0,38] - 6649 m[3,0,39]
   + m[3,1,36] + 3 m[3,1,37] - 6647 m[3,1,38] - 3 m[3,1,39]
   - 50000 c[3,9,-1.0] >= -63289
 R2800: 6 m[3,0,36] - m[3,0,37] - 2 m[3,0,38] + 4 m[3,0,39] - 2 m[3,1,37]
   + 5 m[3,1,38] + 4 m[3,1,39] - 50000 c[3,9,-1.0] >= -49999
 R2801: - 17 m[3,0,36] - 4 m[3,0,37] + 5 m[3,0,38] - m[3,0,39]
   + 4 m[3,1,36] + 2 m[3,1,37] + 13 m[3,1,38] - 10 m[3,1,39]
   - 50000 c[3,9,-1.0] >= -50015
 R2802: - 2 m[3,0,36] + 4 m[3,0,37] + 11 m[3,0,38] - 2 m[3,0,39]
   + 9 m[3,1,36] + 9 m[3,1,37] + 14 m[3,1,38] + 14 m[3,1,39]
   - 50000 c[3,9,-1.0] >= -49984
 R2803: 5 m[3,0,36] + 2 m[3,0,37] + 2 m[3,0,38] + 4 m[3,0,39] + 3 m[3,1,37]
   + m[3,1,39] - 50000 c[3,9,-1.0] >= -49995
 R2804: - 3324 m[3,0,36] + m[3,0,37] + 3324 m[3,0,39] + m[3,1,36]
   - 583 m[3,1,37] - 584 m[3,1,38] - 2740 m[3,1,39] - 50000 c[3,9,-1.0]
   >= -53907
 R2805: 15 m[3,0,36] - 2 m[3,0,37] + 3 m[3,0,38] - 10 m[3,0,39] - m[3,1,36]
   - 3 m[3,1,37] - 11 m[3,1,38] - 5 m[3,1,39] - 50000 c[3,9,-1.0]
   >= -50017
 R2806: - 5 m[3,0,36] - 2 m[3,0,37] + m[3,0,38] - 10 m[3,0,39]
   - 3 m[3,1,36] - 3 m[3,1,37] - 11 m[3,1,38] + 15 m[3,1,39]
   - 50000 c[3,9,-1.0] >= -50019
 R2807: c[3,10,0.0] + c[3,10,-3.0] + c[3,10,-2.0] + c[3,10,-1.41504]
   + c[3,10,-1.0] = 1
 R2808: - m[3,0,40] - m[3,0,41] - m[3,0,42] - m[3,0,43] - m[3,1,40]
   - m[3,1,41] - m[3,1,42] - m[3,1,43] - 50000 c[3,10,0.0] >= -50000
 R2809: c[3,10,-3.0] = 0
 R2810: - m[3,0,40] - m[3,0,43] - m[3,1,42] - m[3,1,43]
   - 50000 c[3,10,-2.0] >= -50003
 R2811: m[3,0,40] + 2 m[3,0,43] + m[3,1,43] - 50000 c[3,10,-2.0] >= -49998
 R2812: 3 m[3,0,40] + m[3,0,43] + 4 m[3,1,42] + 2 m[3,1,43]
   - 50000 c[3,10,-2.0] >= -49995
 R2813: c[3,10,-1.41504] = 0
 R2814: - 6649 m[3,0,40] + 3 m[3,0,41] - 7 m[3,0,42] + 4 m[3,0,43]
   - 5 m[3,1,40] - m[3,1,41] + 6639 m[3,1,42] - 6648 m[3,1,43]
   - 50000 c[3,10,-1.0] >= -56657
 R2815: 10 m[3,0,40] + 2 m[3,0,41] - 6641 m[3,0,42] - 6649 m[3,0,43]
   + m[3,1,40] + 3 m[3,1,41] - 6647 m[3,1,42] - 3 m[3,1,43]
   - 50000 c[3,10,-1.0] >= -63289
 R2816: 6 m[3,0,40] - m[3,0,41] - 2 m[3,0,42] + 4 m[3,0,43] - 2 m[3,1,41]
   + 5 m[3,1,42] + 4 m[3,1,43] - 50000 c[3,10,-1.0] >= -49999
 R2817: - 17 m[3,0,40] - 4 m[3,0,41] + 5 m[3,0,42] - m[3,0,43]
   + 4 m[3,1,40] + 2 m[3,1,41] + 13 m[3,1,42] - 10 m[3,1,43]
   - 50000 c[3,10,-1.0] >= -50015
 R2818: - 2 m[3,0,40] + 4 m[3,0,41] + 11 m[3,0,42] - 2 m[3,0,43]
   + 9 m[3,1,40] + 9 m[3,1,41] + 14 m[3,1,42] + 14 m[3,1,43]
   - 50000 c[3,10,-1.0] >= -49984
 R2819: 5 m[3,0,40] + 2 m[3,0,41] + 2 m[3,0,42] + 4 m[3,0,43] + 3 m[3,1,41]
   + m[3,1,43] - 50000 c[3,10,-1.0] >= -49995
 R2820: - 3324 m[3,0,40] + m[3,0,41] + 3324 m[3,0,43] + m[3,1,40]
   - 583 m[3,1,41] - 584 m[3,1,42] - 2740 m[3,1,43] - 50000 c[3,10,-1.0]
   >= -53907
 R2821: 15 m[3,0,40] - 2 m[3,0,41] + 3 m[3,0,42] - 10 m[3,0,43] - m[3,1,40]
   - 3 m[3,1,41] - 11 m[3,1,42] - 5 m[3,1,43] - 50000 c[3,10,-1.0]
   >= -50017
 R2822: - 5 m[3,0,40] - 2 m[3,0,41] + m[3,0,42] - 10 m[3,0,43]
   - 3 m[3,1,40] - 3 m[3,1,41] - 11 m[3,1,42] + 15 m[3,1,43]
   - 50000 c[3,10,-1.0] >= -50019
 R2823: c[3,11,0.0] + c[3,11,-3.0] + c[3,11,-2.0] + c[3,11,-1.41504]
   + c[3,11,-1.0] = 1
 R2824: c[3,11,0.0] = 0
 R2825: c[3,11,-3.0] = 0
 R2826: - 5 m[3,0,45] + 4 m[3,0,46] - m[3,1,44] + 4 m[3,1,45] - m[3,1,46]
   + m[3,1,47] - 50000 c[3,11,-2.0] >= -50002
 R2827: 7978 m[3,0,45] + m[3,0,46] + 7979 m[3,1,44] + m[3,1,45]
   - 7979 m[3,1,46] + 7979 m[3,1,47] - 50000 c[3,11,-2.0] >= -50000
 R2828: m[3,0,45] - m[3,1,44] + m[3,1,46] + m[3,1,47] - 50000 c[3,11,-2.0]
   >= -50000
 R2829: - 5 m[3,0,45] - 4 m[3,0,46] + m[3,1,44] - 4 m[3,1,45] + m[3,1,46]
   + m[3,1,47] - 50000 c[3,11,-2.0] >= -50008
 R2830: - m[3,0,45] - m[3,1,44] + m[3,1,46] - m[3,1,47]
   - 50000 c[3,11,-2.0] >= -50002
 R2831: 5 m[3,0,45] + 4 m[3,0,46] + m[3,1,44] - 4 m[3,1,45] + m[3,1,46]
   - m[3,1,47] - 50000 c[3,11,-2.0] >= -50000
 R2832: 5 m[3,0,45] - 4 m[3,0,46] - m[3,1,44] + 4 m[3,1,45] - m[3,1,46]
   - m[3,1,47] - 50000 c[3,11,-2.0] >= -50002
 R2833: - 5 m[3,0,45] + 4 m[3,0,46] + m[3,1,44] + 4 m[3,1,45] - m[3,1,46]
   - m[3,1,47] - 50000 c[3,11,-2.0] >= -50002
 R2834: c[3,11,-1.41504] = 0
 R2835: c[3,11,-1.0] = 0
 R2836: c[3,12,0.0] + c[3,12,-3.0] + c[3,12,-2.0] + c[3,12,-1.41504]
   + c[3,12,-1.0] = 1
 R2837: - m[3,0,48] - m[3,0,49] - m[3,0,50] - m[3,0,51] - m[3,1,48]
   - m[3,1,49] - m[3,1,50] - m[3,1,51] - 50000 c[3,12,0.0] >= -50000
 R2838: c[3,12,-3.0] = 0
 R2839: - m[3,0,48] - m[3,0,51] - m[3,1,50] - m[3,1,51]
   - 50000 c[3,12,-2.0] >= -50003
 R2840: m[3,0,48] + 2 m[3,0,51] + m[3,1,51] - 50000 c[3,12,-2.0] >= -49998
 R2841: 3 m[3,0,48] + m[3,0,51] + 4 m[3,1,50] + 2 m[3,1,51]
   - 50000 c[3,12,-2.0] >= -49995
 R2842: c[3,12,-1.41504] = 0
 R2843: - 6649 m[3,0,48] + 3 m[3,0,49] - 7 m[3,0,50] + 4 m[3,0,51]
   - 5 m[3,1,48] - m[3,1,49] + 6639 m[3,1,50] - 6648 m[3,1,51]
   - 50000 c[3,12,-1.0] >= -56657
 R2844: 10 m[3,0,48] + 2 m[3,0,49] - 6641 m[3,0,50] - 6649 m[3,0,51]
   + m[3,1,48] + 3 m[3,1,49] - 6647 m[3,1,50] - 3 m[3,1,51]
   - 50000 c[3,12,-1.0] >= -63289
 R2845: 6 m[3,0,48] - m[3,0,49] - 2 m[3,0,50] + 4 m[3,0,51] - 2 m[3,1,49]
   + 5 m[3,1,50] + 4 m[3,1,51] - 50000 c[3,12,-1.0] >= -49999
 R2846: - 17 m[3,0,48] - 4 m[3,0,49] + 5 m[3,0,50] - m[3,0,51]
   + 4 m[3,1,48] + 2 m[3,1,49] + 13 m[3,1,50] - 10 m[3,1,51]
   - 50000 c[3,12,-1.0] >= -50015
 R2847: - 2 m[3,0,48] + 4 m[3,0,49] + 11 m[3,0,50] - 2 m[3,0,51]
   + 9 m[3,1,48] + 9 m[3,1,49] + 14 m[3,1,50] + 14 m[3,1,51]
   - 50000 c[3,12,-1.0] >= -49984
 R2848: 5 m[3,0,48] + 2 m[3,0,49] + 2 m[3,0,50] + 4 m[3,0,51] + 3 m[3,1,49]
   + m[3,1,51] - 50000 c[3,12,-1.0] >= -49995
 R2849: - 3324 m[3,0,48] + m[3,0,49] + 3324 m[3,0,51] + m[3,1,48]
   - 583 m[3,1,49] - 584 m[3,1,50] - 2740 m[3,1,51] - 50000 c[3,12,-1.0]
   >= -53907
 R2850: 15 m[3,0,48] - 2 m[3,0,49] + 3 m[3,0,50] - 10 m[3,0,51] - m[3,1,48]
   - 3 m[3,1,49] - 11 m[3,1,50] - 5 m[3,1,51] - 50000 c[3,12,-1.0]
   >= -50017
 R2851: - 5 m[3,0,48] - 2 m[3,0,49] + m[3,0,50] - 10 m[3,0,51]
   - 3 m[3,1,48] - 3 m[3,1,49] - 11 m[3,1,50] + 15 m[3,1,51]
   - 50000 c[3,12,-1.0] >= -50019
 R2852: c[3,13,0.0] + c[3,13,-3.0] + c[3,13,-2.0] + c[3,13,-1.41504]
   + c[3,13,-1.0] = 1
 R2853: - m[3,0,52] - m[3,0,53] - m[3,0,54] - m[3,0,55] - m[3,1,52]
   - m[3,1,53] - m[3,1,54] - m[3,1,55] - 50000 c[3,13,0.0] >= -50000
 R2854: c[3,13,-3.0] = 0
 R2855: - m[3,0,52] - m[3,0,55] - m[3,1,54] - m[3,1,55]
   - 50000 c[3,13,-2.0] >= -50003
 R2856: m[3,0,52] + 2 m[3,0,55] + m[3,1,55] - 50000 c[3,13,-2.0] >= -49998
 R2857: 3 m[3,0,52] + m[3,0,55] + 4 m[3,1,54] + 2 m[3,1,55]
   - 50000 c[3,13,-2.0] >= -49995
 R2858: c[3,13,-1.41504] = 0
 R2859: - 6649 m[3,0,52] + 3 m[3,0,53] - 7 m[3,0,54] + 4 m[3,0,55]
   - 5 m[3,1,52] - m[3,1,53] + 6639 m[3,1,54] - 6648 m[3,1,55]
   - 50000 c[3,13,-1.0] >= -56657
 R2860: 10 m[3,0,52] + 2 m[3,0,53] - 6641 m[3,0,54] - 6649 m[3,0,55]
   + m[3,1,52] + 3 m[3,1,53] - 6647 m[3,1,54] - 3 m[3,1,55]
   - 50000 c[3,13,-1.0] >= -63289
 R2861: 6 m[3,0,52] - m[3,0,53] - 2 m[3,0,54] + 4 m[3,0,55] - 2 m[3,1,53]
   + 5 m[3,1,54] + 4 m[3,1,55] - 50000 c[3,13,-1.0] >= -49999
 R2862: - 17 m[3,0,52] - 4 m[3,0,53] + 5 m[3,0,54] - m[3,0,55]
   + 4 m[3,1,52] + 2 m[3,1,53] + 13 m[3,1,54] - 10 m[3,1,55]
   - 50000 c[3,13,-1.0] >= -50015
 R2863: - 2 m[3,0,52] + 4 m[3,0,53] + 11 m[3,0,54] - 2 m[3,0,55]
   + 9 m[3,1,52] + 9 m[3,1,53] + 14 m[3,1,54] + 14 m[3,1,55]
   - 50000 c[3,13,-1.0] >= -49984
 R2864: 5 m[3,0,52] + 2 m[3,0,53] + 2 m[3,0,54] + 4 m[3,0,55] + 3 m[3,1,53]
   + m[3,1,55] - 50000 c[3,13,-1.0] >= -49995
 R2865: - 3324 m[3,0,52] + m[3,0,53] + 3324 m[3,0,55] + m[3,1,52]
   - 583 m[3,1,53] - 584 m[3,1,54] - 2740 m[3,1,55] - 50000 c[3,13,-1.0]
   >= -53907
 R2866: 15 m[3,0,52] - 2 m[3,0,53] + 3 m[3,0,54] - 10 m[3,0,55] - m[3,1,52]
   - 3 m[3,1,53] - 11 m[3,1,54] - 5 m[3,1,55] - 50000 c[3,13,-1.0]
   >= -50017
 R2867: - 5 m[3,0,52] - 2 m[3,0,53] + m[3,0,54] - 10 m[3,0,55]
   - 3 m[3,1,52] - 3 m[3,1,53] - 11 m[3,1,54] + 15 m[3,1,55]
   - 50000 c[3,13,-1.0] >= -50019
 R2868: c[3,14,0.0] + c[3,14,-3.0] + c[3,14,-2.0] + c[3,14,-1.41504]
   + c[3,14,-1.0] = 1
 R2869: - m[3,0,56] - m[3,0,57] - m[3,0,58] - m[3,0,59] - m[3,1,56]
   - m[3,1,57] - m[3,1,58] - m[3,1,59] - 50000 c[3,14,0.0] >= -50000
 R2870: c[3,14,-3.0] = 0
 R2871: - m[3,0,56] - m[3,0,59] - m[3,1,58] - m[3,1,59]
   - 50000 c[3,14,-2.0] >= -50003
 R2872: m[3,0,56] + 2 m[3,0,59] + m[3,1,59] - 50000 c[3,14,-2.0] >= -49998
 R2873: 3 m[3,0,56] + m[3,0,59] + 4 m[3,1,58] + 2 m[3,1,59]
   - 50000 c[3,14,-2.0] >= -49995
 R2874: c[3,14,-1.41504] = 0
 R2875: - 6649 m[3,0,56] + 3 m[3,0,57] - 7 m[3,0,58] + 4 m[3,0,59]
   - 5 m[3,1,56] - m[3,1,57] + 6639 m[3,1,58] - 6648 m[3,1,59]
   - 50000 c[3,14,-1.0] >= -56657
 R2876: 10 m[3,0,56] + 2 m[3,0,57] - 6641 m[3,0,58] - 6649 m[3,0,59]
   + m[3,1,56] + 3 m[3,1,57] - 6647 m[3,1,58] - 3 m[3,1,59]
   - 50000 c[3,14,-1.0] >= -63289
 R2877: 6 m[3,0,56] - m[3,0,57] - 2 m[3,0,58] + 4 m[3,0,59] - 2 m[3,1,57]
   + 5 m[3,1,58] + 4 m[3,1,59] - 50000 c[3,14,-1.0] >= -49999
 R2878: - 17 m[3,0,56] - 4 m[3,0,57] + 5 m[3,0,58] - m[3,0,59]
   + 4 m[3,1,56] + 2 m[3,1,57] + 13 m[3,1,58] - 10 m[3,1,59]
   - 50000 c[3,14,-1.0] >= -50015
 R2879: - 2 m[3,0,56] + 4 m[3,0,57] + 11 m[3,0,58] - 2 m[3,0,59]
   + 9 m[3,1,56] + 9 m[3,1,57] + 14 m[3,1,58] + 14 m[3,1,59]
   - 50000 c[3,14,-1.0] >= -49984
 R2880: 5 m[3,0,56] + 2 m[3,0,57] + 2 m[3,0,58] + 4 m[3,0,59] + 3 m[3,1,57]
   + m[3,1,59] - 50000 c[3,14,-1.0] >= -49995
 R2881: - 3324 m[3,0,56] + m[3,0,57] + 3324 m[3,0,59] + m[3,1,56]
   - 583 m[3,1,57] - 584 m[3,1,58] - 2740 m[3,1,59] - 50000 c[3,14,-1.0]
   >= -53907
 R2882: 15 m[3,0,56] - 2 m[3,0,57] + 3 m[3,0,58] - 10 m[3,0,59] - m[3,1,56]
   - 3 m[3,1,57] - 11 m[3,1,58] - 5 m[3,1,59] - 50000 c[3,14,-1.0]
   >= -50017
 R2883: - 5 m[3,0,56] - 2 m[3,0,57] + m[3,0,58] - 10 m[3,0,59]
   - 3 m[3,1,56] - 3 m[3,1,57] - 11 m[3,1,58] + 15 m[3,1,59]
   - 50000 c[3,14,-1.0] >= -50019
 R2884: c[3,15,0.0] + c[3,15,-3.0] + c[3,15,-2.0] + c[3,15,-1.41504]
   + c[3,15,-1.0] = 1
 R2885: - m[3,0,60] - m[3,0,61] - m[3,0,62] - m[3,0,63] - m[3,1,60]
   - m[3,1,61] - m[3,1,62] - m[3,1,63] - 50000 c[3,15,0.0] >= -50000
 R2886: c[3,15,-3.0] = 0
 R2887: - m[3,0,60] - m[3,0,63] - m[3,1,62] - m[3,1,63]
   - 50000 c[3,15,-2.0] >= -50003
 R2888: m[3,0,60] + 2 m[3,0,63] + m[3,1,63] - 50000 c[3,15,-2.0] >= -49998
 R2889: 3 m[3,0,60] + m[3,0,63] + 4 m[3,1,62] + 2 m[3,1,63]
   - 50000 c[3,15,-2.0] >= -49995
 R2890: c[3,15,-1.41504] = 0
 R2891: - 6649 m[3,0,60] + 3 m[3,0,61] - 7 m[3,0,62] + 4 m[3,0,63]
   - 5 m[3,1,60] - m[3,1,61] + 6639 m[3,1,62] - 6648 m[3,1,63]
   - 50000 c[3,15,-1.0] >= -56657
 R2892: 10 m[3,0,60] + 2 m[3,0,61] - 6641 m[3,0,62] - 6649 m[3,0,63]
   + m[3,1,60] + 3 m[3,1,61] - 6647 m[3,1,62] - 3 m[3,1,63]
   - 50000 c[3,15,-1.0] >= -63289
 R2893: 6 m[3,0,60] - m[3,0,61] - 2 m[3,0,62] + 4 m[3,0,63] - 2 m[3,1,61]
   + 5 m[3,1,62] + 4 m[3,1,63] - 50000 c[3,15,-1.0] >= -49999
 R2894: - 17 m[3,0,60] - 4 m[3,0,61] + 5 m[3,0,62] - m[3,0,63]
   + 4 m[3,1,60] + 2 m[3,1,61] + 13 m[3,1,62] - 10 m[3,1,63]
   - 50000 c[3,15,-1.0] >= -50015
 R2895: - 2 m[3,0,60] + 4 m[3,0,61] + 11 m[3,0,62] - 2 m[3,0,63]
   + 9 m[3,1,60] + 9 m[3,1,61] + 14 m[3,1,62] + 14 m[3,1,63]
   - 50000 c[3,15,-1.0] >= -49984
 R2896: 5 m[3,0,60] + 2 m[3,0,61] + 2 m[3,0,62] + 4 m[3,0,63] + 3 m[3,1,61]
   + m[3,1,63] - 50000 c[3,15,-1.0] >= -49995
 R2897: - 3324 m[3,0,60] + m[3,0,61] + 3324 m[3,0,63] + m[3,1,60]
   - 583 m[3,1,61] - 584 m[3,1,62] - 2740 m[3,1,63] - 50000 c[3,15,-1.0]
   >= -53907
 R2898: 15 m[3,0,60] - 2 m[3,0,61] + 3 m[3,0,62] - 10 m[3,0,63] - m[3,1,60]
   - 3 m[3,1,61] - 11 m[3,1,62] - 5 m[3,1,63] - 50000 c[3,15,-1.0]
   >= -50017
 R2899: - 5 m[3,0,60] - 2 m[3,0,61] + m[3,0,62] - 10 m[3,0,63]
   - 3 m[3,1,60] - 3 m[3,1,61] - 11 m[3,1,62] + 15 m[3,1,63]
   - 50000 c[3,15,-1.0] >= -50019
 R2900: c[4,0,0.0] + c[4,0,-3.0] + c[4,0,-2.0] + c[4,0,-1.41504]
   + c[4,0,-1.0] = 1
 R2901: - m[4,0,0] - m[4,0,1] - m[4,0,2] - m[4,0,3] - m[4,1,0] - m[4,1,1]
   - m[4,1,2] - m[4,1,3] - 50000 c[4,0,0.0] >= -50000
 R2902: c[4,0,-3.0] = 0
 R2903: - m[4,0,0] - m[4,0,3] - m[4,1,2] - m[4,1,3] - 50000 c[4,0,-2.0]
   >= -50003
 R2904: m[4,0,0] + 2 m[4,0,3] + m[4,1,3] - 50000 c[4,0,-2.0] >= -49998
 R2905: 3 m[4,0,0] + m[4,0,3] + 4 m[4,1,2] + 2 m[4,1,3] - 50000 c[4,0,-2.0]
   >= -49995
 R2906: c[4,0,-1.41504] = 0
 R2907: - 6649 m[4,0,0] + 3 m[4,0,1] - 7 m[4,0,2] + 4 m[4,0,3] - 5 m[4,1,0]
   - m[4,1,1] + 6639 m[4,1,2] - 6648 m[4,1,3] - 50000 c[4,0,-1.0]
   >= -56657
 R2908: 10 m[4,0,0] + 2 m[4,0,1] - 6641 m[4,0,2] - 6649 m[4,0,3] + m[4,1,0]
   + 3 m[4,1,1] - 6647 m[4,1,2] - 3 m[4,1,3] - 50000 c[4,0,-1.0] >= -63289
 R2909: 6 m[4,0,0] - m[4,0,1] - 2 m[4,0,2] + 4 m[4,0,3] - 2 m[4,1,1]
   + 5 m[4,1,2] + 4 m[4,1,3] - 50000 c[4,0,-1.0] >= -49999
 R2910: - 17 m[4,0,0] - 4 m[4,0,1] + 5 m[4,0,2] - m[4,0,3] + 4 m[4,1,0]
   + 2 m[4,1,1] + 13 m[4,1,2] - 10 m[4,1,3] - 50000 c[4,0,-1.0] >= -50015
 R2911: - 2 m[4,0,0] + 4 m[4,0,1] + 11 m[4,0,2] - 2 m[4,0,3] + 9 m[4,1,0]
   + 9 m[4,1,1] + 14 m[4,1,2] + 14 m[4,1,3] - 50000 c[4,0,-1.0] >= -49984
 R2912: 5 m[4,0,0] + 2 m[4,0,1] + 2 m[4,0,2] + 4 m[4,0,3] + 3 m[4,1,1]
   + m[4,1,3] - 50000 c[4,0,-1.0] >= -49995
 R2913: - 3324 m[4,0,0] + m[4,0,1] + 3324 m[4,0,3] + m[4,1,0]
   - 583 m[4,1,1] - 584 m[4,1,2] - 2740 m[4,1,3] - 50000 c[4,0,-1.0]
   >= -53907
 R2914: 15 m[4,0,0] - 2 m[4,0,1] + 3 m[4,0,2] - 10 m[4,0,3] - m[4,1,0]
   - 3 m[4,1,1] - 11 m[4,1,2] - 5 m[4,1,3] - 50000 c[4,0,-1.0] >= -50017
 R2915: - 5 m[4,0,0] - 2 m[4,0,1] + m[4,0,2] - 10 m[4,0,3] - 3 m[4,1,0]
   - 3 m[4,1,1] - 11 m[4,1,2] + 15 m[4,1,3] - 50000 c[4,0,-1.0] >= -50019
 R2916: c[4,1,0.0] + c[4,1,-3.0] + c[4,1,-2.0] + c[4,1,-1.41504]
   + c[4,1,-1.0] = 1
 R2917: c[4,1,0.0] = 0
 R2918: - m[4,0,5] - m[4,1,5] - m[4,1,6] - 50000 c[4,1,-3.0] >= -50002
 R2919: m[4,0,5] + m[4,1,5] - m[4,1,6] - 50000 c[4,1,-3.0] >= -50000
 R2920: m[4,0,5] - m[4,1,5] + m[4,1,6] - 50000 c[4,1,-3.0] >= -50000
 R2921: - m[4,0,5] + m[4,1,5] + m[4,1,6] - 50000 c[4,1,-3.0] >= -50000
 R2922: c[4,1,-2.0] = 0
 R2923: c[4,1,-1.41504] = 0
 R2924: c[4,1,-1.0] = 0
 R2925: c[4,2,0.0] + c[4,2,-3.0] + c[4,2,-2.0] + c[4,2,-1.41504]
   + c[4,2,-1.0] = 1
 R2926: - m[4,0,8] - m[4,0,9] - m[4,0,10] - m[4,0,11] - m[4,1,8] - m[4,1,9]
   - m[4,1,10] - m[4,1,11] - 50000 c[4,2,0.0] >= -50000
 R2927: c[4,2,-3.0] = 0
 R2928: - m[4,0,8] - m[4,0,11] - m[4,1,10] - m[4,1,11] - 50000 c[4,2,-2.0]
   >= -50003
 R2929: m[4,0,8] + 2 m[4,0,11] + m[4,1,11] - 50000 c[4,2,-2.0] >= -49998
 R2930: 3 m[4,0,8] + m[4,0,11] + 4 m[4,1,10] + 2 m[4,1,11]
   - 50000 c[4,2,-2.0] >= -49995
 R2931: c[4,2,-1.41504] = 0
 R2932: - 6649 m[4,0,8] + 3 m[4,0,9] - 7 m[4,0,10] + 4 m[4,0,11]
   - 5 m[4,1,8] - m[4,1,9] + 6639 m[4,1,10] - 6648 m[4,1,11]
   - 50000 c[4,2,-1.0] >= -56657
 R2933: 10 m[4,0,8] + 2 m[4,0,9] - 6641 m[4,0,10] - 6649 m[4,0,11]
   + m[4,1,8] + 3 m[4,1,9] - 6647 m[4,1,10] - 3 m[4,1,11]
   - 50000 c[4,2,-1.0] >= -63289
 R2934: 6 m[4,0,8] - m[4,0,9] - 2 m[4,0,10] + 4 m[4,0,11] - 2 m[4,1,9]
   + 5 m[4,1,10] + 4 m[4,1,11] - 50000 c[4,2,-1.0] >= -49999
 R2935: - 17 m[4,0,8] - 4 m[4,0,9] + 5 m[4,0,10] - m[4,0,11] + 4 m[4,1,8]
   + 2 m[4,1,9] + 13 m[4,1,10] - 10 m[4,1,11] - 50000 c[4,2,-1.0]
   >= -50015
 R2936: - 2 m[4,0,8] + 4 m[4,0,9] + 11 m[4,0,10] - 2 m[4,0,11] + 9 m[4,1,8]
   + 9 m[4,1,9] + 14 m[4,1,10] + 14 m[4,1,11] - 50000 c[4,2,-1.0]
   >= -49984
 R2937: 5 m[4,0,8] + 2 m[4,0,9] + 2 m[4,0,10] + 4 m[4,0,11] + 3 m[4,1,9]
   + m[4,1,11] - 50000 c[4,2,-1.0] >= -49995
 R2938: - 3324 m[4,0,8] + m[4,0,9] + 3324 m[4,0,11] + m[4,1,8]
   - 583 m[4,1,9] - 584 m[4,1,10] - 2740 m[4,1,11] - 50000 c[4,2,-1.0]
   >= -53907
 R2939: 15 m[4,0,8] - 2 m[4,0,9] + 3 m[4,0,10] - 10 m[4,0,11] - m[4,1,8]
   - 3 m[4,1,9] - 11 m[4,1,10] - 5 m[4,1,11] - 50000 c[4,2,-1.0] >= -50017
 R2940: - 5 m[4,0,8] - 2 m[4,0,9] + m[4,0,10] - 10 m[4,0,11] - 3 m[4,1,8]
   - 3 m[4,1,9] - 11 m[4,1,10] + 15 m[4,1,11] - 50000 c[4,2,-1.0]
   >= -50019
 R2941: c[4,3,0.0] + c[4,3,-3.0] + c[4,3,-2.0] + c[4,3,-1.41504]
   + c[4,3,-1.0] = 1
 R2942: - m[4,0,12] - m[4,0,13] - m[4,0,14] - m[4,0,15] - m[4,1,12]
   - m[4,1,13] - m[4,1,14] - m[4,1,15] - 50000 c[4,3,0.0] >= -50000
 R2943: c[4,3,-3.0] = 0
 R2944: - m[4,0,12] - m[4,0,15] - m[4,1,14] - m[4,1,15] - 50000 c[4,3,-2.0]
   >= -50003
 R2945: m[4,0,12] + 2 m[4,0,15] + m[4,1,15] - 50000 c[4,3,-2.0] >= -49998
 R2946: 3 m[4,0,12] + m[4,0,15] + 4 m[4,1,14] + 2 m[4,1,15]
   - 50000 c[4,3,-2.0] >= -49995
 R2947: c[4,3,-1.41504] = 0
 R2948: - 6649 m[4,0,12] + 3 m[4,0,13] - 7 m[4,0,14] + 4 m[4,0,15]
   - 5 m[4,1,12] - m[4,1,13] + 6639 m[4,1,14] - 6648 m[4,1,15]
   - 50000 c[4,3,-1.0] >= -56657
 R2949: 10 m[4,0,12] + 2 m[4,0,13] - 6641 m[4,0,14] - 6649 m[4,0,15]
   + m[4,1,12] + 3 m[4,1,13] - 6647 m[4,1,14] - 3 m[4,1,15]
   - 50000 c[4,3,-1.0] >= -63289
 R2950: 6 m[4,0,12] - m[4,0,13] - 2 m[4,0,14] + 4 m[4,0,15] - 2 m[4,1,13]
   + 5 m[4,1,14] + 4 m[4,1,15] - 50000 c[4,3,-1.0] >= -49999
 R2951: - 17 m[4,0,12] - 4 m[4,0,13] + 5 m[4,0,14] - m[4,0,15]
   + 4 m[4,1,12] + 2 m[4,1,13] + 13 m[4,1,14] - 10 m[4,1,15]
   - 50000 c[4,3,-1.0] >= -50015
 R2952: - 2 m[4,0,12] + 4 m[4,0,13] + 11 m[4,0,14] - 2 m[4,0,15]
   + 9 m[4,1,12] + 9 m[4,1,13] + 14 m[4,1,14] + 14 m[4,1,15]
   - 50000 c[4,3,-1.0] >= -49984
 R2953: 5 m[4,0,12] + 2 m[4,0,13] + 2 m[4,0,14] + 4 m[4,0,15] + 3 m[4,1,13]
   + m[4,1,15] - 50000 c[4,3,-1.0] >= -49995
 R2954: - 3324 m[4,0,12] + m[4,0,13] + 3324 m[4,0,15] + m[4,1,12]
   - 583 m[4,1,13] - 584 m[4,1,14] - 2740 m[4,1,15] - 50000 c[4,3,-1.0]
   >= -53907
 R2955: 15 m[4,0,12] - 2 m[4,0,13] + 3 m[4,0,14] - 10 m[4,0,15] - m[4,1,12]
   - 3 m[4,1,13] - 11 m[4,1,14] - 5 m[4,1,15] - 50000 c[4,3,-1.0]
   >= -50017
 R2956: - 5 m[4,0,12] - 2 m[4,0,13] + m[4,0,14] - 10 m[4,0,15]
   - 3 m[4,1,12] - 3 m[4,1,13] - 11 m[4,1,14] + 15 m[4,1,15]
   - 50000 c[4,3,-1.0] >= -50019
 R2957: c[4,4,0.0] + c[4,4,-3.0] + c[4,4,-2.0] + c[4,4,-1.41504]
   + c[4,4,-1.0] = 1
 R2958: - m[4,0,16] - m[4,0,17] - m[4,0,18] - m[4,0,19] - m[4,1,16]
   - m[4,1,17] - m[4,1,18] - m[4,1,19] - 50000 c[4,4,0.0] >= -50000
 R2959: c[4,4,-3.0] = 0
 R2960: - m[4,0,16] - m[4,0,19] - m[4,1,18] - m[4,1,19] - 50000 c[4,4,-2.0]
   >= -50003
 R2961: m[4,0,16] + 2 m[4,0,19] + m[4,1,19] - 50000 c[4,4,-2.0] >= -49998
 R2962: 3 m[4,0,16] + m[4,0,19] + 4 m[4,1,18] + 2 m[4,1,19]
   - 50000 c[4,4,-2.0] >= -49995
 R2963: c[4,4,-1.41504] = 0
 R2964: - 6649 m[4,0,16] + 3 m[4,0,17] - 7 m[4,0,18] + 4 m[4,0,19]
   - 5 m[4,1,16] - m[4,1,17] + 6639 m[4,1,18] - 6648 m[4,1,19]
   - 50000 c[4,4,-1.0] >= -56657
 R2965: 10 m[4,0,16] + 2 m[4,0,17] - 6641 m[4,0,18] - 6649 m[4,0,19]
   + m[4,1,16] + 3 m[4,1,17] - 6647 m[4,1,18] - 3 m[4,1,19]
   - 50000 c[4,4,-1.0] >= -63289
 R2966: 6 m[4,0,16] - m[4,0,17] - 2 m[4,0,18] + 4 m[4,0,19] - 2 m[4,1,17]
   + 5 m[4,1,18] + 4 m[4,1,19] - 50000 c[4,4,-1.0] >= -49999
 R2967: - 17 m[4,0,16] - 4 m[4,0,17] + 5 m[4,0,18] - m[4,0,19]
   + 4 m[4,1,16] + 2 m[4,1,17] + 13 m[4,1,18] - 10 m[4,1,19]
   - 50000 c[4,4,-1.0] >= -50015
 R2968: - 2 m[4,0,16] + 4 m[4,0,17] + 11 m[4,0,18] - 2 m[4,0,19]
   + 9 m[4,1,16] + 9 m[4,1,17] + 14 m[4,1,18] + 14 m[4,1,19]
   - 50000 c[4,4,-1.0] >= -49984
 R2969: 5 m[4,0,16] + 2 m[4,0,17] + 2 m[4,0,18] + 4 m[4,0,19] + 3 m[4,1,17]
   + m[4,1,19] - 50000 c[4,4,-1.0] >= -49995
 R2970: - 3324 m[4,0,16] + m[4,0,17] + 3324 m[4,0,19] + m[4,1,16]
   - 583 m[4,1,17] - 584 m[4,1,18] - 2740 m[4,1,19] - 50000 c[4,4,-1.0]
   >= -53907
 R2971: 15 m[4,0,16] - 2 m[4,0,17] + 3 m[4,0,18] - 10 m[4,0,19] - m[4,1,16]
   - 3 m[4,1,17] - 11 m[4,1,18] - 5 m[4,1,19] - 50000 c[4,4,-1.0]
   >= -50017
 R2972: - 5 m[4,0,16] - 2 m[4,0,17] + m[4,0,18] - 10 m[4,0,19]
   - 3 m[4,1,16] - 3 m[4,1,17] - 11 m[4,1,18] + 15 m[4,1,19]
   - 50000 c[4,4,-1.0] >= -50019
 R2973: c[4,5,0.0] + c[4,5,-3.0] + c[4,5,-2.0] + c[4,5,-1.41504]
   + c[4,5,-1.0] = 1
 R2974: - m[4,0,20] - m[4,0,21] - m[4,0,22] - m[4,0,23] - m[4,1,20]
   - m[4,1,21] - m[4,1,22] - m[4,1,23] - 50000 c[4,5,0.0] >= -50000
 R2975: c[4,5,-3.0] = 0
 R2976: - m[4,0,20] - m[4,0,23] - m[4,1,22] - m[4,1,23] - 50000 c[4,5,-2.0]
   >= -50003
 R2977: m[4,0,20] + 2 m[4,0,23] + m[4,1,23] - 50000 c[4,5,-2.0] >= -49998
 R2978: 3 m[4,0,20] + m[4,0,23] + 4 m[4,1,22] + 2 m[4,1,23]
   - 50000 c[4,5,-2.0] >= -49995
 R2979: c[4,5,-1.41504] = 0
 R2980: - 6649 m[4,0,20] + 3 m[4,0,21] - 7 m[4,0,22] + 4 m[4,0,23]
   - 5 m[4,1,20] - m[4,1,21] + 6639 m[4,1,22] - 6648 m[4,1,23]
   - 50000 c[4,5,-1.0] >= -56657
 R2981: 10 m[4,0,20] + 2 m[4,0,21] - 6641 m[4,0,22] - 6649 m[4,0,23]
   + m[4,1,20] + 3 m[4,1,21] - 6647 m[4,1,22] - 3 m[4,1,23]
   - 50000 c[4,5,-1.0] >= -63289
 R2982: 6 m[4,0,20] - m[4,0,21] - 2 m[4,0,22] + 4 m[4,0,23] - 2 m[4,1,21]
   + 5 m[4,1,22] + 4 m[4,1,23] - 50000 c[4,5,-1.0] >= -49999
 R2983: - 17 m[4,0,20] - 4 m[4,0,21] + 5 m[4,0,22] - m[4,0,23]
   + 4 m[4,1,20] + 2 m[4,1,21] + 13 m[4,1,22] - 10 m[4,1,23]
   - 50000 c[4,5,-1.0] >= -50015
 R2984: - 2 m[4,0,20] + 4 m[4,0,21] + 11 m[4,0,22] - 2 m[4,0,23]
   + 9 m[4,1,20] + 9 m[4,1,21] + 14 m[4,1,22] + 14 m[4,1,23]
   - 50000 c[4,5,-1.0] >= -49984
 R2985: 5 m[4,0,20] + 2 m[4,0,21] + 2 m[4,0,22] + 4 m[4,0,23] + 3 m[4,1,21]
   + m[4,1,23] - 50000 c[4,5,-1.0] >= -49995
 R2986: - 3324 m[4,0,20] + m[4,0,21] + 3324 m[4,0,23] + m[4,1,20]
   - 583 m[4,1,21] - 584 m[4,1,22] - 2740 m[4,1,23] - 50000 c[4,5,-1.0]
   >= -53907
 R2987: 15 m[4,0,20] - 2 m[4,0,21] + 3 m[4,0,22] - 10 m[4,0,23] - m[4,1,20]
   - 3 m[4,1,21] - 11 m[4,1,22] - 5 m[4,1,23] - 50000 c[4,5,-1.0]
   >= -50017
 R2988: - 5 m[4,0,20] - 2 m[4,0,21] + m[4,0,22] - 10 m[4,0,23]
   - 3 m[4,1,20] - 3 m[4,1,21] - 11 m[4,1,22] + 15 m[4,1,23]
   - 50000 c[4,5,-1.0] >= -50019
 R2989: c[4,6,0.0] + c[4,6,-3.0] + c[4,6,-2.0] + c[4,6,-1.41504]
   + c[4,6,-1.0] = 1
 R2990: - m[4,0,24] - m[4,0,25] - m[4,0,26] - m[4,0,27] - m[4,1,24]
   - m[4,1,25] - m[4,1,26] - m[4,1,27] - 50000 c[4,6,0.0] >= -50000
 R2991: c[4,6,-3.0] = 0
 R2992: - m[4,0,24] - m[4,0,27] - m[4,1,26] - m[4,1,27] - 50000 c[4,6,-2.0]
   >= -50003
 R2993: m[4,0,24] + 2 m[4,0,27] + m[4,1,27] - 50000 c[4,6,-2.0] >= -49998
 R2994: 3 m[4,0,24] + m[4,0,27] + 4 m[4,1,26] + 2 m[4,1,27]
   - 50000 c[4,6,-2.0] >= -49995
 R2995: c[4,6,-1.41504] = 0
 R2996: - 6649 m[4,0,24] + 3 m[4,0,25] - 7 m[4,0,26] + 4 m[4,0,27]
   - 5 m[4,1,24] - m[4,1,25] + 6639 m[4,1,26] - 6648 m[4,1,27]
   - 50000 c[4,6,-1.0] >= -56657
 R2997: 10 m[4,0,24] + 2 m[4,0,25] - 6641 m[4,0,26] - 6649 m[4,0,27]
   + m[4,1,24] + 3 m[4,1,25] - 6647 m[4,1,26] - 3 m[4,1,27]
   - 50000 c[4,6,-1.0] >= -63289
 R2998: 6 m[4,0,24] - m[4,0,25] - 2 m[4,0,26] + 4 m[4,0,27] - 2 m[4,1,25]
   + 5 m[4,1,26] + 4 m[4,1,27] - 50000 c[4,6,-1.0] >= -49999
 R2999: - 17 m[4,0,24] - 4 m[4,0,25] + 5 m[4,0,26] - m[4,0,27]
   + 4 m[4,1,24] + 2 m[4,1,25] + 13 m[4,1,26] - 10 m[4,1,27]
   - 50000 c[4,6,-1.0] >= -50015
 R3000: - 2 m[4,0,24] + 4 m[4,0,25] + 11 m[4,0,26] - 2 m[4,0,27]
   + 9 m[4,1,24] + 9 m[4,1,25] + 14 m[4,1,26] + 14 m[4,1,27]
   - 50000 c[4,6,-1.0] >= -49984
 R3001: 5 m[4,0,24] + 2 m[4,0,25] + 2 m[4,0,26] + 4 m[4,0,27] + 3 m[4,1,25]
   + m[4,1,27] - 50000 c[4,6,-1.0] >= -49995
 R3002: - 3324 m[4,0,24] + m[4,0,25] + 3324 m[4,0,27] + m[4,1,24]
   - 583 m[4,1,25] - 584 m[4,1,26] - 2740 m[4,1,27] - 50000 c[4,6,-1.0]
   >= -53907
 R3003: 15 m[4,0,24] - 2 m[4,0,25] + 3 m[4,0,26] - 10 m[4,0,27] - m[4,1,24]
   - 3 m[4,1,25] - 11 m[4,1,26] - 5 m[4,1,27] - 50000 c[4,6,-1.0]
   >= -50017
 R3004: - 5 m[4,0,24] - 2 m[4,0,25] + m[4,0,26] - 10 m[4,0,27]
   - 3 m[4,1,24] - 3 m[4,1,25] - 11 m[4,1,26] + 15 m[4,1,27]
   - 50000 c[4,6,-1.0] >= -50019
 R3005: c[4,7,0.0] + c[4,7,-3.0] + c[4,7,-2.0] + c[4,7,-1.41504]
   + c[4,7,-1.0] = 1
 R3006: - m[4,0,28] - m[4,0,29] - m[4,0,30] - m[4,0,31] - m[4,1,28]
   - m[4,1,29] - m[4,1,30] - m[4,1,31] - 50000 c[4,7,0.0] >= -50000
 R3007: c[4,7,-3.0] = 0
 R3008: - m[4,0,28] - m[4,0,31] - m[4,1,30] - m[4,1,31] - 50000 c[4,7,-2.0]
   >= -50003
 R3009: m[4,0,28] + 2 m[4,0,31] + m[4,1,31] - 50000 c[4,7,-2.0] >= -49998
 R3010: 3 m[4,0,28] + m[4,0,31] + 4 m[4,1,30] + 2 m[4,1,31]
   - 50000 c[4,7,-2.0] >= -49995
 R3011: c[4,7,-1.41504] = 0
 R3012: - 6649 m[4,0,28] + 3 m[4,0,29] - 7 m[4,0,30] + 4 m[4,0,31]
   - 5 m[4,1,28] - m[4,1,29] + 6639 m[4,1,30] - 6648 m[4,1,31]
   - 50000 c[4,7,-1.0] >= -56657
 R3013: 10 m[4,0,28] + 2 m[4,0,29] - 6641 m[4,0,30] - 6649 m[4,0,31]
   + m[4,1,28] + 3 m[4,1,29] - 6647 m[4,1,30] - 3 m[4,1,31]
   - 50000 c[4,7,-1.0] >= -63289
 R3014: 6 m[4,0,28] - m[4,0,29] - 2 m[4,0,30] + 4 m[4,0,31] - 2 m[4,1,29]
   + 5 m[4,1,30] + 4 m[4,1,31] - 50000 c[4,7,-1.0] >= -49999
 R3015: - 17 m[4,0,28] - 4 m[4,0,29] + 5 m[4,0,30] - m[4,0,31]
   + 4 m[4,1,28] + 2 m[4,1,29] + 13 m[4,1,30] - 10 m[4,1,31]
   - 50000 c[4,7,-1.0] >= -50015
 R3016: - 2 m[4,0,28] + 4 m[4,0,29] + 11 m[4,0,30] - 2 m[4,0,31]
   + 9 m[4,1,28] + 9 m[4,1,29] + 14 m[4,1,30] + 14 m[4,1,31]
   - 50000 c[4,7,-1.0] >= -49984
 R3017: 5 m[4,0,28] + 2 m[4,0,29] + 2 m[4,0,30] + 4 m[4,0,31] + 3 m[4,1,29]
   + m[4,1,31] - 50000 c[4,7,-1.0] >= -49995
 R3018: - 3324 m[4,0,28] + m[4,0,29] + 3324 m[4,0,31] + m[4,1,28]
   - 583 m[4,1,29] - 584 m[4,1,30] - 2740 m[4,1,31] - 50000 c[4,7,-1.0]
   >= -53907
 R3019: 15 m[4,0,28] - 2 m[4,0,29] + 3 m[4,0,30] - 10 m[4,0,31] - m[4,1,28]
   - 3 m[4,1,29] - 11 m[4,1,30] - 5 m[4,1,31] - 50000 c[4,7,-1.0]
   >= -50017
 R3020: - 5 m[4,0,28] - 2 m[4,0,29] + m[4,0,30] - 10 m[4,0,31]
   - 3 m[4,1,28] - 3 m[4,1,29] - 11 m[4,1,30] + 15 m[4,1,31]
   - 50000 c[4,7,-1.0] >= -50019
 R3021: c[4,8,0.0] + c[4,8,-3.0] + c[4,8,-2.0] + c[4,8,-1.41504]
   + c[4,8,-1.0] = 1
 R3022: - m[4,0,32] - m[4,0,33] - m[4,0,34] - m[4,0,35] - m[4,1,32]
   - m[4,1,33] - m[4,1,34] - m[4,1,35] - 50000 c[4,8,0.0] >= -50000
 R3023: c[4,8,-3.0] = 0
 R3024: - m[4,0,32] - m[4,0,35] - m[4,1,34] - m[4,1,35] - 50000 c[4,8,-2.0]
   >= -50003
 R3025: m[4,0,32] + 2 m[4,0,35] + m[4,1,35] - 50000 c[4,8,-2.0] >= -49998
 R3026: 3 m[4,0,32] + m[4,0,35] + 4 m[4,1,34] + 2 m[4,1,35]
   - 50000 c[4,8,-2.0] >= -49995
 R3027: c[4,8,-1.41504] = 0
 R3028: - 6649 m[4,0,32] + 3 m[4,0,33] - 7 m[4,0,34] + 4 m[4,0,35]
   - 5 m[4,1,32] - m[4,1,33] + 6639 m[4,1,34] - 6648 m[4,1,35]
   - 50000 c[4,8,-1.0] >= -56657
 R3029: 10 m[4,0,32] + 2 m[4,0,33] - 6641 m[4,0,34] - 6649 m[4,0,35]
   + m[4,1,32] + 3 m[4,1,33] - 6647 m[4,1,34] - 3 m[4,1,35]
   - 50000 c[4,8,-1.0] >= -63289
 R3030: 6 m[4,0,32] - m[4,0,33] - 2 m[4,0,34] + 4 m[4,0,35] - 2 m[4,1,33]
   + 5 m[4,1,34] + 4 m[4,1,35] - 50000 c[4,8,-1.0] >= -49999
 R3031: - 17 m[4,0,32] - 4 m[4,0,33] + 5 m[4,0,34] - m[4,0,35]
   + 4 m[4,1,32] + 2 m[4,1,33] + 13 m[4,1,34] - 10 m[4,1,35]
   - 50000 c[4,8,-1.0] >= -50015
 R3032: - 2 m[4,0,32] + 4 m[4,0,33] + 11 m[4,0,34] - 2 m[4,0,35]
   + 9 m[4,1,32] + 9 m[4,1,33] + 14 m[4,1,34] + 14 m[4,1,35]
   - 50000 c[4,8,-1.0] >= -49984
 R3033: 5 m[4,0,32] + 2 m[4,0,33] + 2 m[4,0,34] + 4 m[4,0,35] + 3 m[4,1,33]
   + m[4,1,35] - 50000 c[4,8,-1.0] >= -49995
 R3034: - 3324 m[4,0,32] + m[4,0,33] + 3324 m[4,0,35] + m[4,1,32]
   - 583 m[4,1,33] - 584 m[4,1,34] - 2740 m[4,1,35] - 50000 c[4,8,-1.0]
   >= -53907
 R3035: 15 m[4,0,32] - 2 m[4,0,33] + 3 m[4,0,34] - 10 m[4,0,35] - m[4,1,32]
   - 3 m[4,1,33] - 11 m[4,1,34] - 5 m[4,1,35] - 50000 c[4,8,-1.0]
   >= -50017
 R3036: - 5 m[4,0,32] - 2 m[4,0,33] + m[4,0,34] - 10 m[4,0,35]
   - 3 m[4,1,32] - 3 m[4,1,33] - 11 m[4,1,34] + 15 m[4,1,35]
   - 50000 c[4,8,-1.0] >= -50019
 R3037: c[4,9,0.0] + c[4,9,-3.0] + c[4,9,-2.0] + c[4,9,-1.41504]
   + c[4,9,-1.0] = 1
 R3038: - m[4,0,36] - m[4,0,37] - m[4,0,38] - m[4,0,39] - m[4,1,36]
   - m[4,1,37] - m[4,1,38] - m[4,1,39] - 50000 c[4,9,0.0] >= -50000
 R3039: c[4,9,-3.0] = 0
 R3040: - m[4,0,36] - m[4,0,39] - m[4,1,38] - m[4,1,39] - 50000 c[4,9,-2.0]
   >= -50003
 R3041: m[4,0,36] + 2 m[4,0,39] + m[4,1,39] - 50000 c[4,9,-2.0] >= -49998
 R3042: 3 m[4,0,36] + m[4,0,39] + 4 m[4,1,38] + 2 m[4,1,39]
   - 50000 c[4,9,-2.0] >= -49995
 R3043: c[4,9,-1.41504] = 0
 R3044: - 6649 m[4,0,36] + 3 m[4,0,37] - 7 m[4,0,38] + 4 m[4,0,39]
   - 5 m[4,1,36] - m[4,1,37] + 6639 m[4,1,38] - 6648 m[4,1,39]
   - 50000 c[4,9,-1.0] >= -56657
 R3045: 10 m[4,0,36] + 2 m[4,0,37] - 6641 m[4,0,38] - 6649 m[4,0,39]
   + m[4,1,36] + 3 m[4,1,37] - 6647 m[4,1,38] - 3 m[4,1,39]
   - 50000 c[4,9,-1.0] >= -63289
 R3046: 6 m[4,0,36] - m[4,0,37] - 2 m[4,0,38] + 4 m[4,0,39] - 2 m[4,1,37]
   + 5 m[4,1,38] + 4 m[4,1,39] - 50000 c[4,9,-1.0] >= -49999
 R3047: - 17 m[4,0,36] - 4 m[4,0,37] + 5 m[4,0,38] - m[4,0,39]
   + 4 m[4,1,36] + 2 m[4,1,37] + 13 m[4,1,38] - 10 m[4,1,39]
   - 50000 c[4,9,-1.0] >= -50015
 R3048: - 2 m[4,0,36] + 4 m[4,0,37] + 11 m[4,0,38] - 2 m[4,0,39]
   + 9 m[4,1,36] + 9 m[4,1,37] + 14 m[4,1,38] + 14 m[4,1,39]
   - 50000 c[4,9,-1.0] >= -49984
 R3049: 5 m[4,0,36] + 2 m[4,0,37] + 2 m[4,0,38] + 4 m[4,0,39] + 3 m[4,1,37]
   + m[4,1,39] - 50000 c[4,9,-1.0] >= -49995
 R3050: - 3324 m[4,0,36] + m[4,0,37] + 3324 m[4,0,39] + m[4,1,36]
   - 583 m[4,1,37] - 584 m[4,1,38] - 2740 m[4,1,39] - 50000 c[4,9,-1.0]
   >= -53907
 R3051: 15 m[4,0,36] - 2 m[4,0,37] + 3 m[4,0,38] - 10 m[4,0,39] - m[4,1,36]
   - 3 m[4,1,37] - 11 m[4,1,38] - 5 m[4,1,39] - 50000 c[4,9,-1.0]
   >= -50017
 R3052: - 5 m[4,0,36] - 2 m[4,0,37] + m[4,0,38] - 10 m[4,0,39]
   - 3 m[4,1,36] - 3 m[4,1,37] - 11 m[4,1,38] + 15 m[4,1,39]
   - 50000 c[4,9,-1.0] >= -50019
 R3053: c[4,10,0.0] + c[4,10,-3.0] + c[4,10,-2.0] + c[4,10,-1.41504]
   + c[4,10,-1.0] = 1
 R3054: - m[4,0,40] - m[4,0,41] - m[4,0,42] - m[4,0,43] - m[4,1,40]
   - m[4,1,41] - m[4,1,42] - m[4,1,43] - 50000 c[4,10,0.0] >= -50000
 R3055: c[4,10,-3.0] = 0
 R3056: - m[4,0,40] - m[4,0,43] - m[4,1,42] - m[4,1,43]
   - 50000 c[4,10,-2.0] >= -50003
 R3057: m[4,0,40] + 2 m[4,0,43] + m[4,1,43] - 50000 c[4,10,-2.0] >= -49998
 R3058: 3 m[4,0,40] + m[4,0,43] + 4 m[4,1,42] + 2 m[4,1,43]
   - 50000 c[4,10,-2.0] >= -49995
 R3059: c[4,10,-1.41504] = 0
 R3060: - 6649 m[4,0,40] + 3 m[4,0,41] - 7 m[4,0,42] + 4 m[4,0,43]
   - 5 m[4,1,40] - m[4,1,41] + 6639 m[4,1,42] - 6648 m[4,1,43]
   - 50000 c[4,10,-1.0] >= -56657
 R3061: 10 m[4,0,40] + 2 m[4,0,41] - 6641 m[4,0,42] - 6649 m[4,0,43]
   + m[4,1,40] + 3 m[4,1,41] - 6647 m[4,1,42] - 3 m[4,1,43]
   - 50000 c[4,10,-1.0] >= -63289
 R3062: 6 m[4,0,40] - m[4,0,41] - 2 m[4,0,42] + 4 m[4,0,43] - 2 m[4,1,41]
   + 5 m[4,1,42] + 4 m[4,1,43] - 50000 c[4,10,-1.0] >= -49999
 R3063: - 17 m[4,0,40] - 4 m[4,0,41] + 5 m[4,0,42] - m[4,0,43]
   + 4 m[4,1,40] + 2 m[4,1,41] + 13 m[4,1,42] - 10 m[4,1,43]
   - 50000 c[4,10,-1.0] >= -50015
 R3064: - 2 m[4,0,40] + 4 m[4,0,41] + 11 m[4,0,42] - 2 m[4,0,43]
   + 9 m[4,1,40] + 9 m[4,1,41] + 14 m[4,1,42] + 14 m[4,1,43]
   - 50000 c[4,10,-1.0] >= -49984
 R3065: 5 m[4,0,40] + 2 m[4,0,41] + 2 m[4,0,42] + 4 m[4,0,43] + 3 m[4,1,41]
   + m[4,1,43] - 50000 c[4,10,-1.0] >= -49995
 R3066: - 3324 m[4,0,40] + m[4,0,41] + 3324 m[4,0,43] + m[4,1,40]
   - 583 m[4,1,41] - 584 m[4,1,42] - 2740 m[4,1,43] - 50000 c[4,10,-1.0]
   >= -53907
 R3067: 15 m[4,0,40] - 2 m[4,0,41] + 3 m[4,0,42] - 10 m[4,0,43] - m[4,1,40]
   - 3 m[4,1,41] - 11 m[4,1,42] - 5 m[4,1,43] - 50000 c[4,10,-1.0]
   >= -50017
 R3068: - 5 m[4,0,40] - 2 m[4,0,41] + m[4,0,42] - 10 m[4,0,43]
   - 3 m[4,1,40] - 3 m[4,1,41] - 11 m[4,1,42] + 15 m[4,1,43]
   - 50000 c[4,10,-1.0] >= -50019
 R3069: c[4,11,0.0] + c[4,11,-3.0] + c[4,11,-2.0] + c[4,11,-1.41504]
   + c[4,11,-1.0] = 1
 R3070: - m[4,0,44] - m[4,0,45] - m[4,0,46] - m[4,0,47] - m[4,1,44]
   - m[4,1,45] - m[4,1,46] - m[4,1,47] - 50000 c[4,11,0.0] >= -50000
 R3071: c[4,11,-3.0] = 0
 R3072: - m[4,0,44] - m[4,0,47] - m[4,1,46] - m[4,1,47]
   - 50000 c[4,11,-2.0] >= -50003
 R3073: m[4,0,44] + 2 m[4,0,47] + m[4,1,47] - 50000 c[4,11,-2.0] >= -49998
 R3074: 3 m[4,0,44] + m[4,0,47] + 4 m[4,1,46] + 2 m[4,1,47]
   - 50000 c[4,11,-2.0] >= -49995
 R3075: c[4,11,-1.41504] = 0
 R3076: - 6649 m[4,0,44] + 3 m[4,0,45] - 7 m[4,0,46] + 4 m[4,0,47]
   - 5 m[4,1,44] - m[4,1,45] + 6639 m[4,1,46] - 6648 m[4,1,47]
   - 50000 c[4,11,-1.0] >= -56657
 R3077: 10 m[4,0,44] + 2 m[4,0,45] - 6641 m[4,0,46] - 6649 m[4,0,47]
   + m[4,1,44] + 3 m[4,1,45] - 6647 m[4,1,46] - 3 m[4,1,47]
   - 50000 c[4,11,-1.0] >= -63289
 R3078: 6 m[4,0,44] - m[4,0,45] - 2 m[4,0,46] + 4 m[4,0,47] - 2 m[4,1,45]
   + 5 m[4,1,46] + 4 m[4,1,47] - 50000 c[4,11,-1.0] >= -49999
 R3079: - 17 m[4,0,44] - 4 m[4,0,45] + 5 m[4,0,46] - m[4,0,47]
   + 4 m[4,1,44] + 2 m[4,1,45] + 13 m[4,1,46] - 10 m[4,1,47]
   - 50000 c[4,11,-1.0] >= -50015
 R3080: - 2 m[4,0,44] + 4 m[4,0,45] + 11 m[4,0,46] - 2 m[4,0,47]
   + 9 m[4,1,44] + 9 m[4,1,45] + 14 m[4,1,46] + 14 m[4,1,47]
   - 50000 c[4,11,-1.0] >= -49984
 R3081: 5 m[4,0,44] + 2 m[4,0,45] + 2 m[4,0,46] + 4 m[4,0,47] + 3 m[4,1,45]
   + m[4,1,47] - 50000 c[4,11,-1.0] >= -49995
 R3082: - 3324 m[4,0,44] + m[4,0,45] + 3324 m[4,0,47] + m[4,1,44]
   - 583 m[4,1,45] - 584 m[4,1,46] - 2740 m[4,1,47] - 50000 c[4,11,-1.0]
   >= -53907
 R3083: 15 m[4,0,44] - 2 m[4,0,45] + 3 m[4,0,46] - 10 m[4,0,47] - m[4,1,44]
   - 3 m[4,1,45] - 11 m[4,1,46] - 5 m[4,1,47] - 50000 c[4,11,-1.0]
   >= -50017
 R3084: - 5 m[4,0,44] - 2 m[4,0,45] + m[4,0,46] - 10 m[4,0,47]
   - 3 m[4,1,44] - 3 m[4,1,45] - 11 m[4,1,46] + 15 m[4,1,47]
   - 50000 c[4,11,-1.0] >= -50019
 R3085: c[4,12,0.0] + c[4,12,-3.0] + c[4,12,-2.0] + c[4,12,-1.41504]
   + c[4,12,-1.0] = 1
 R3086: c[4,12,0.0] = 0
 R3087: c[4,12,-3.0] = 0
 R3088: - 5 m[4,0,49] + 4 m[4,0,50] - m[4,1,48] + 4 m[4,1,49] - m[4,1,50]
   + m[4,1,51] - 50000 c[4,12,-2.0] >= -50002
 R3089: 7978 m[4,0,49] + m[4,0,50] + 7979 m[4,1,48] + m[4,1,49]
   - 7979 m[4,1,50] + 7979 m[4,1,51] - 50000 c[4,12,-2.0] >= -50000
 R3090: m[4,0,49] - m[4,1,48] + m[4,1,50] + m[4,1,51] - 50000 c[4,12,-2.0]
   >= -50000
 R3091: - 5 m[4,0,49] - 4 m[4,0,50] + m[4,1,48] - 4 m[4,1,49] + m[4,1,50]
   + m[4,1,51] - 50000 c[4,12,-2.0] >= -50008
 R3092: - m[4,0,49] - m[4,1,48] + m[4,1,50] - m[4,1,51]
   - 50000 c[4,12,-2.0] >= -50002
 R3093: 5 m[4,0,49] + 4 m[4,0,50] + m[4,1,48] - 4 m[4,1,49] + m[4,1,50]
   - m[4,1,51] - 50000 c[4,12,-2.0] >= -50000
 R3094: 5 m[4,0,49] - 4 m[4,0,50] - m[4,1,48] + 4 m[4,1,49] - m[4,1,50]
   - m[4,1,51] - 50000 c[4,12,-2.0] >= -50002
 R3095: - 5 m[4,0,49] + 4 m[4,0,50] + m[4,1,48] + 4 m[4,1,49] - m[4,1,50]
   - m[4,1,51] - 50000 c[4,12,-2.0] >= -50002
 R3096: c[4,12,-1.41504] = 0
 R3097: c[4,12,-1.0] = 0
 R3098: c[4,13,0.0] + c[4,13,-3.0] + c[4,13,-2.0] + c[4,13,-1.41504]
   + c[4,13,-1.0] = 1
 R3099: - m[4,0,52] - m[4,0,53] - m[4,0,54] - m[4,0,55] - m[4,1,52]
   - m[4,1,53] - m[4,1,54] - m[4,1,55] - 50000 c[4,13,0.0] >= -50000
 R3100: c[4,13,-3.0] = 0
 R3101: - m[4,0,52] - m[4,0,55] - m[4,1,54] - m[4,1,55]
   - 50000 c[4,13,-2.0] >= -50003
 R3102: m[4,0,52] + 2 m[4,0,55] + m[4,1,55] - 50000 c[4,13,-2.0] >= -49998
 R3103: 3 m[4,0,52] + m[4,0,55] + 4 m[4,1,54] + 2 m[4,1,55]
   - 50000 c[4,13,-2.0] >= -49995
 R3104: c[4,13,-1.41504] = 0
 R3105: - 6649 m[4,0,52] + 3 m[4,0,53] - 7 m[4,0,54] + 4 m[4,0,55]
   - 5 m[4,1,52] - m[4,1,53] + 6639 m[4,1,54] - 6648 m[4,1,55]
   - 50000 c[4,13,-1.0] >= -56657
 R3106: 10 m[4,0,52] + 2 m[4,0,53] - 6641 m[4,0,54] - 6649 m[4,0,55]
   + m[4,1,52] + 3 m[4,1,53] - 6647 m[4,1,54] - 3 m[4,1,55]
   - 50000 c[4,13,-1.0] >= -63289
 R3107: 6 m[4,0,52] - m[4,0,53] - 2 m[4,0,54] + 4 m[4,0,55] - 2 m[4,1,53]
   + 5 m[4,1,54] + 4 m[4,1,55] - 50000 c[4,13,-1.0] >= -49999
 R3108: - 17 m[4,0,52] - 4 m[4,0,53] + 5 m[4,0,54] - m[4,0,55]
   + 4 m[4,1,52] + 2 m[4,1,53] + 13 m[4,1,54] - 10 m[4,1,55]
   - 50000 c[4,13,-1.0] >= -50015
 R3109: - 2 m[4,0,52] + 4 m[4,0,53] + 11 m[4,0,54] - 2 m[4,0,55]
   + 9 m[4,1,52] + 9 m[4,1,53] + 14 m[4,1,54] + 14 m[4,1,55]
   - 50000 c[4,13,-1.0] >= -49984
 R3110: 5 m[4,0,52] + 2 m[4,0,53] + 2 m[4,0,54] + 4 m[4,0,55] + 3 m[4,1,53]
   + m[4,1,55] - 50000 c[4,13,-1.0] >= -49995
 R3111: - 3324 m[4,0,52] + m[4,0,53] + 3324 m[4,0,55] + m[4,1,52]
   - 583 m[4,1,53] - 584 m[4,1,54] - 2740 m[4,1,55] - 50000 c[4,13,-1.0]
   >= -53907
 R3112: 15 m[4,0,52] - 2 m[4,0,53] + 3 m[4,0,54] - 10 m[4,0,55] - m[4,1,52]
   - 3 m[4,1,53] - 11 m[4,1,54] - 5 m[4,1,55] - 50000 c[4,13,-1.0]
   >= -50017
 R3113: - 5 m[4,0,52] - 2 m[4,0,53] + m[4,0,54] - 10 m[4,0,55]
   - 3 m[4,1,52] - 3 m[4,1,53] - 11 m[4,1,54] + 15 m[4,1,55]
   - 50000 c[4,13,-1.0] >= -50019
 R3114: c[4,14,0.0] + c[4,14,-3.0] + c[4,14,-2.0] + c[4,14,-1.41504]
   + c[4,14,-1.0] = 1
 R3115: - m[4,0,56] - m[4,0,57] - m[4,0,58] - m[4,0,59] - m[4,1,56]
   - m[4,1,57] - m[4,1,58] - m[4,1,59] - 50000 c[4,14,0.0] >= -50000
 R3116: c[4,14,-3.0] = 0
 R3117: - m[4,0,56] - m[4,0,59] - m[4,1,58] - m[4,1,59]
   - 50000 c[4,14,-2.0] >= -50003
 R3118: m[4,0,56] + 2 m[4,0,59] + m[4,1,59] - 50000 c[4,14,-2.0] >= -49998
 R3119: 3 m[4,0,56] + m[4,0,59] + 4 m[4,1,58] + 2 m[4,1,59]
   - 50000 c[4,14,-2.0] >= -49995
 R3120: c[4,14,-1.41504] = 0
 R3121: - 6649 m[4,0,56] + 3 m[4,0,57] - 7 m[4,0,58] + 4 m[4,0,59]
   - 5 m[4,1,56] - m[4,1,57] + 6639 m[4,1,58] - 6648 m[4,1,59]
   - 50000 c[4,14,-1.0] >= -56657
 R3122: 10 m[4,0,56] + 2 m[4,0,57] - 6641 m[4,0,58] - 6649 m[4,0,59]
   + m[4,1,56] + 3 m[4,1,57] - 6647 m[4,1,58] - 3 m[4,1,59]
   - 50000 c[4,14,-1.0] >= -63289
 R3123: 6 m[4,0,56] - m[4,0,57] - 2 m[4,0,58] + 4 m[4,0,59] - 2 m[4,1,57]
   + 5 m[4,1,58] + 4 m[4,1,59] - 50000 c[4,14,-1.0] >= -49999
 R3124: - 17 m[4,0,56] - 4 m[4,0,57] + 5 m[4,0,58] - m[4,0,59]
   + 4 m[4,1,56] + 2 m[4,1,57] + 13 m[4,1,58] - 10 m[4,1,59]
   - 50000 c[4,14,-1.0] >= -50015
 R3125: - 2 m[4,0,56] + 4 m[4,0,57] + 11 m[4,0,58] - 2 m[4,0,59]
   + 9 m[4,1,56] + 9 m[4,1,57] + 14 m[4,1,58] + 14 m[4,1,59]
   - 50000 c[4,14,-1.0] >= -49984
 R3126: 5 m[4,0,56] + 2 m[4,0,57] + 2 m[4,0,58] + 4 m[4,0,59] + 3 m[4,1,57]
   + m[4,1,59] - 50000 c[4,14,-1.0] >= -49995
 R3127: - 3324 m[4,0,56] + m[4,0,57] + 3324 m[4,0,59] + m[4,1,56]
   - 583 m[4,1,57] - 584 m[4,1,58] - 2740 m[4,1,59] - 50000 c[4,14,-1.0]
   >= -53907
 R3128: 15 m[4,0,56] - 2 m[4,0,57] + 3 m[4,0,58] - 10 m[4,0,59] - m[4,1,56]
   - 3 m[4,1,57] - 11 m[4,1,58] - 5 m[4,1,59] - 50000 c[4,14,-1.0]
   >= -50017
 R3129: - 5 m[4,0,56] - 2 m[4,0,57] + m[4,0,58] - 10 m[4,0,59]
   - 3 m[4,1,56] - 3 m[4,1,57] - 11 m[4,1,58] + 15 m[4,1,59]
   - 50000 c[4,14,-1.0] >= -50019
 R3130: c[4,15,0.0] + c[4,15,-3.0] + c[4,15,-2.0] + c[4,15,-1.41504]
   + c[4,15,-1.0] = 1
 R3131: - m[4,0,60] - m[4,0,61] - m[4,0,62] - m[4,0,63] - m[4,1,60]
   - m[4,1,61] - m[4,1,62] - m[4,1,63] - 50000 c[4,15,0.0] >= -50000
 R3132: c[4,15,-3.0] = 0
 R3133: - m[4,0,60] - m[4,0,63] - m[4,1,62] - m[4,1,63]
   - 50000 c[4,15,-2.0] >= -50003
 R3134: m[4,0,60] + 2 m[4,0,63] + m[4,1,63] - 50000 c[4,15,-2.0] >= -49998
 R3135: 3 m[4,0,60] + m[4,0,63] + 4 m[4,1,62] + 2 m[4,1,63]
   - 50000 c[4,15,-2.0] >= -49995
 R3136: c[4,15,-1.41504] = 0
 R3137: - 6649 m[4,0,60] + 3 m[4,0,61] - 7 m[4,0,62] + 4 m[4,0,63]
   - 5 m[4,1,60] - m[4,1,61] + 6639 m[4,1,62] - 6648 m[4,1,63]
   - 50000 c[4,15,-1.0] >= -56657
 R3138: 10 m[4,0,60] + 2 m[4,0,61] - 6641 m[4,0,62] - 6649 m[4,0,63]
   + m[4,1,60] + 3 m[4,1,61] - 6647 m[4,1,62] - 3 m[4,1,63]
   - 50000 c[4,15,-1.0] >= -63289
 R3139: 6 m[4,0,60] - m[4,0,61] - 2 m[4,0,62] + 4 m[4,0,63] - 2 m[4,1,61]
   + 5 m[4,1,62] + 4 m[4,1,63] - 50000 c[4,15,-1.0] >= -49999
 R3140: - 17 m[4,0,60] - 4 m[4,0,61] + 5 m[4,0,62] - m[4,0,63]
   + 4 m[4,1,60] + 2 m[4,1,61] + 13 m[4,1,62] - 10 m[4,1,63]
   - 50000 c[4,15,-1.0] >= -50015
 R3141: - 2 m[4,0,60] + 4 m[4,0,61] + 11 m[4,0,62] - 2 m[4,0,63]
   + 9 m[4,1,60] + 9 m[4,1,61] + 14 m[4,1,62] + 14 m[4,1,63]
   - 50000 c[4,15,-1.0] >= -49984
 R3142: 5 m[4,0,60] + 2 m[4,0,61] + 2 m[4,0,62] + 4 m[4,0,63] + 3 m[4,1,61]
   + m[4,1,63] - 50000 c[4,15,-1.0] >= -49995
 R3143: - 3324 m[4,0,60] + m[4,0,61] + 3324 m[4,0,63] + m[4,1,60]
   - 583 m[4,1,61] - 584 m[4,1,62] - 2740 m[4,1,63] - 50000 c[4,15,-1.0]
   >= -53907
 R3144: 15 m[4,0,60] - 2 m[4,0,61] + 3 m[4,0,62] - 10 m[4,0,63] - m[4,1,60]
   - 3 m[4,1,61] - 11 m[4,1,62] - 5 m[4,1,63] - 50000 c[4,15,-1.0]
   >= -50017
 R3145: - 5 m[4,0,60] - 2 m[4,0,61] + m[4,0,62] - 10 m[4,0,63]
   - 3 m[4,1,60] - 3 m[4,1,61] - 11 m[4,1,62] + 15 m[4,1,63]
   - 50000 c[4,15,-1.0] >= -50019
 R3146: c[5,0,0.0] + c[5,0,-3.0] + c[5,0,-2.0] + c[5,0,-1.41504]
   + c[5,0,-1.0] = 1
 R3147: - m[5,0,0] - m[5,0,1] - m[5,0,2] - m[5,0,3] - m[5,1,0] - m[5,1,1]
   - m[5,1,2] - m[5,1,3] - 50000 c[5,0,0.0] >= -50000
 R3148: c[5,0,-3.0] = 0
 R3149: - m[5,0,0] - m[5,0,3] - m[5,1,2] - m[5,1,3] - 50000 c[5,0,-2.0]
   >= -50003
 R3150: m[5,0,0] + 2 m[5,0,3] + m[5,1,3] - 50000 c[5,0,-2.0] >= -49998
 R3151: 3 m[5,0,0] + m[5,0,3] + 4 m[5,1,2] + 2 m[5,1,3] - 50000 c[5,0,-2.0]
   >= -49995
 R3152: c[5,0,-1.41504] = 0
 R3153: - 6649 m[5,0,0] + 3 m[5,0,1] - 7 m[5,0,2] + 4 m[5,0,3] - 5 m[5,1,0]
   - m[5,1,1] + 6639 m[5,1,2] - 6648 m[5,1,3] - 50000 c[5,0,-1.0]
   >= -56657
 R3154: 10 m[5,0,0] + 2 m[5,0,1] - 6641 m[5,0,2] - 6649 m[5,0,3] + m[5,1,0]
   + 3 m[5,1,1] - 6647 m[5,1,2] - 3 m[5,1,3] - 50000 c[5,0,-1.0] >= -63289
 R3155: 6 m[5,0,0] - m[5,0,1] - 2 m[5,0,2] + 4 m[5,0,3] - 2 m[5,1,1]
   + 5 m[5,1,2] + 4 m[5,1,3] - 50000 c[5,0,-1.0] >= -49999
 R3156: - 17 m[5,0,0] - 4 m[5,0,1] + 5 m[5,0,2] - m[5,0,3] + 4 m[5,1,0]
   + 2 m[5,1,1] + 13 m[5,1,2] - 10 m[5,1,3] - 50000 c[5,0,-1.0] >= -50015
 R3157: - 2 m[5,0,0] + 4 m[5,0,1] + 11 m[5,0,2] - 2 m[5,0,3] + 9 m[5,1,0]
   + 9 m[5,1,1] + 14 m[5,1,2] + 14 m[5,1,3] - 50000 c[5,0,-1.0] >= -49984
 R3158: 5 m[5,0,0] + 2 m[5,0,1] + 2 m[5,0,2] + 4 m[5,0,3] + 3 m[5,1,1]
   + m[5,1,3] - 50000 c[5,0,-1.0] >= -49995
 R3159: - 3324 m[5,0,0] + m[5,0,1] + 3324 m[5,0,3] + m[5,1,0]
   - 583 m[5,1,1] - 584 m[5,1,2] - 2740 m[5,1,3] - 50000 c[5,0,-1.0]
   >= -53907
 R3160: 15 m[5,0,0] - 2 m[5,0,1] + 3 m[5,0,2] - 10 m[5,0,3] - m[5,1,0]
   - 3 m[5,1,1] - 11 m[5,1,2] - 5 m[5,1,3] - 50000 c[5,0,-1.0] >= -50017
 R3161: - 5 m[5,0,0] - 2 m[5,0,1] + m[5,0,2] - 10 m[5,0,3] - 3 m[5,1,0]
   - 3 m[5,1,1] - 11 m[5,1,2] + 15 m[5,1,3] - 50000 c[5,0,-1.0] >= -50019
 R3162: c[5,1,0.0] + c[5,1,-3.0] + c[5,1,-2.0] + c[5,1,-1.41504]
   + c[5,1,-1.0] = 1
 R3163: - m[5,0,4] - m[5,0,5] - m[5,0,6] - m[5,0,7] - m[5,1,4] - m[5,1,5]
   - m[5,1,6] - m[5,1,7] - 50000 c[5,1,0.0] >= -50000
 R3164: c[5,1,-3.0] = 0
 R3165: - m[5,0,4] - m[5,0,7] - m[5,1,6] - m[5,1,7] - 50000 c[5,1,-2.0]
   >= -50003
 R3166: m[5,0,4] + 2 m[5,0,7] + m[5,1,7] - 50000 c[5,1,-2.0] >= -49998
 R3167: 3 m[5,0,4] + m[5,0,7] + 4 m[5,1,6] + 2 m[5,1,7] - 50000 c[5,1,-2.0]
   >= -49995
 R3168: c[5,1,-1.41504] = 0
 R3169: - 6649 m[5,0,4] + 3 m[5,0,5] - 7 m[5,0,6] + 4 m[5,0,7] - 5 m[5,1,4]
   - m[5,1,5] + 6639 m[5,1,6] - 6648 m[5,1,7] - 50000 c[5,1,-1.0]
   >= -56657
 R3170: 10 m[5,0,4] + 2 m[5,0,5] - 6641 m[5,0,6] - 6649 m[5,0,7] + m[5,1,4]
   + 3 m[5,1,5] - 6647 m[5,1,6] - 3 m[5,1,7] - 50000 c[5,1,-1.0] >= -63289
 R3171: 6 m[5,0,4] - m[5,0,5] - 2 m[5,0,6] + 4 m[5,0,7] - 2 m[5,1,5]
   + 5 m[5,1,6] + 4 m[5,1,7] - 50000 c[5,1,-1.0] >= -49999
 R3172: - 17 m[5,0,4] - 4 m[5,0,5] + 5 m[5,0,6] - m[5,0,7] + 4 m[5,1,4]
   + 2 m[5,1,5] + 13 m[5,1,6] - 10 m[5,1,7] - 50000 c[5,1,-1.0] >= -50015
 R3173: - 2 m[5,0,4] + 4 m[5,0,5] + 11 m[5,0,6] - 2 m[5,0,7] + 9 m[5,1,4]
   + 9 m[5,1,5] + 14 m[5,1,6] + 14 m[5,1,7] - 50000 c[5,1,-1.0] >= -49984
 R3174: 5 m[5,0,4] + 2 m[5,0,5] + 2 m[5,0,6] + 4 m[5,0,7] + 3 m[5,1,5]
   + m[5,1,7] - 50000 c[5,1,-1.0] >= -49995
 R3175: - 3324 m[5,0,4] + m[5,0,5] + 3324 m[5,0,7] + m[5,1,4]
   - 583 m[5,1,5] - 584 m[5,1,6] - 2740 m[5,1,7] - 50000 c[5,1,-1.0]
   >= -53907
 R3176: 15 m[5,0,4] - 2 m[5,0,5] + 3 m[5,0,6] - 10 m[5,0,7] - m[5,1,4]
   - 3 m[5,1,5] - 11 m[5,1,6] - 5 m[5,1,7] - 50000 c[5,1,-1.0] >= -50017
 R3177: - 5 m[5,0,4] - 2 m[5,0,5] + m[5,0,6] - 10 m[5,0,7] - 3 m[5,1,4]
   - 3 m[5,1,5] - 11 m[5,1,6] + 15 m[5,1,7] - 50000 c[5,1,-1.0] >= -50019
 R3178: c[5,2,0.0] + c[5,2,-3.0] + c[5,2,-2.0] + c[5,2,-1.41504]
   + c[5,2,-1.0] = 1
 R3179: c[5,2,0.0] = 0
 R3180: - m[5,0,9] - m[5,1,9] - m[5,1,10] - 50000 c[5,2,-3.0] >= -50002
 R3181: m[5,0,9] + m[5,1,9] - m[5,1,10] - 50000 c[5,2,-3.0] >= -50000
 R3182: m[5,0,9] - m[5,1,9] + m[5,1,10] - 50000 c[5,2,-3.0] >= -50000
 R3183: - m[5,0,9] + m[5,1,9] + m[5,1,10] - 50000 c[5,2,-3.0] >= -50000
 R3184: c[5,2,-2.0] = 0
 R3185: c[5,2,-1.41504] = 0
 R3186: c[5,2,-1.0] = 0
 R3187: c[5,3,0.0] + c[5,3,-3.0] + c[5,3,-2.0] + c[5,3,-1.41504]
   + c[5,3,-1.0] = 1
 R3188: - m[5,0,12] - m[5,0,13] - m[5,0,14] - m[5,0,15] - m[5,1,12]
   - m[5,1,13] - m[5,1,14] - m[5,1,15] - 50000 c[5,3,0.0] >= -50000
 R3189: c[5,3,-3.0] = 0
 R3190: - m[5,0,12] - m[5,0,15] - m[5,1,14] - m[5,1,15] - 50000 c[5,3,-2.0]
   >= -50003
 R3191: m[5,0,12] + 2 m[5,0,15] + m[5,1,15] - 50000 c[5,3,-2.0] >= -49998
 R3192: 3 m[5,0,12] + m[5,0,15] + 4 m[5,1,14] + 2 m[5,1,15]
   - 50000 c[5,3,-2.0] >= -49995
 R3193: c[5,3,-1.41504] = 0
 R3194: - 6649 m[5,0,12] + 3 m[5,0,13] - 7 m[5,0,14] + 4 m[5,0,15]
   - 5 m[5,1,12] - m[5,1,13] + 6639 m[5,1,14] - 6648 m[5,1,15]
   - 50000 c[5,3,-1.0] >= -56657
 R3195: 10 m[5,0,12] + 2 m[5,0,13] - 6641 m[5,0,14] - 6649 m[5,0,15]
   + m[5,1,12] + 3 m[5,1,13] - 6647 m[5,1,14] - 3 m[5,1,15]
   - 50000 c[5,3,-1.0] >= -63289
 R3196: 6 m[5,0,12] - m[5,0,13] - 2 m[5,0,14] + 4 m[5,0,15] - 2 m[5,1,13]
   + 5 m[5,1,14] + 4 m[5,1,15] - 50000 c[5,3,-1.0] >= -49999
 R3197: - 17 m[5,0,12] - 4 m[5,0,13] + 5 m[5,0,14] - m[5,0,15]
   + 4 m[5,1,12] + 2 m[5,1,13] + 13 m[5,1,14] - 10 m[5,1,15]
   - 50000 c[5,3,-1.0] >= -50015
 R3198: - 2 m[5,0,12] + 4 m[5,0,13] + 11 m[5,0,14] - 2 m[5,0,15]
   + 9 m[5,1,12] + 9 m[5,1,13] + 14 m[5,1,14] + 14 m[5,1,15]
   - 50000 c[5,3,-1.0] >= -49984
 R3199: 5 m[5,0,12] + 2 m[5,0,13] + 2 m[5,0,14] + 4 m[5,0,15] + 3 m[5,1,13]
   + m[5,1,15] - 50000 c[5,3,-1.0] >= -49995
 R3200: - 3324 m[5,0,12] + m[5,0,13] + 3324 m[5,0,15] + m[5,1,12]
   - 583 m[5,1,13] - 584 m[5,1,14] - 2740 m[5,1,15] - 50000 c[5,3,-1.0]
   >= -53907
 R3201: 15 m[5,0,12] - 2 m[5,0,13] + 3 m[5,0,14] - 10 m[5,0,15] - m[5,1,12]
   - 3 m[5,1,13] - 11 m[5,1,14] - 5 m[5,1,15] - 50000 c[5,3,-1.0]
   >= -50017
 R3202: - 5 m[5,0,12] - 2 m[5,0,13] + m[5,0,14] - 10 m[5,0,15]
   - 3 m[5,1,12] - 3 m[5,1,13] - 11 m[5,1,14] + 15 m[5,1,15]
   - 50000 c[5,3,-1.0] >= -50019
 R3203: c[5,4,0.0] + c[5,4,-3.0] + c[5,4,-2.0] + c[5,4,-1.41504]
   + c[5,4,-1.0] = 1
 R3204: - m[5,0,16] - m[5,0,17] - m[5,0,18] - m[5,0,19] - m[5,1,16]
   - m[5,1,17] - m[5,1,18] - m[5,1,19] - 50000 c[5,4,0.0] >= -50000
 R3205: c[5,4,-3.0] = 0
 R3206: - m[5,0,16] - m[5,0,19] - m[5,1,18] - m[5,1,19] - 50000 c[5,4,-2.0]
   >= -50003
 R3207: m[5,0,16] + 2 m[5,0,19] + m[5,1,19] - 50000 c[5,4,-2.0] >= -49998
 R3208: 3 m[5,0,16] + m[5,0,19] + 4 m[5,1,18] + 2 m[5,1,19]
   - 50000 c[5,4,-2.0] >= -49995
 R3209: c[5,4,-1.41504] = 0
 R3210: - 6649 m[5,0,16] + 3 m[5,0,17] - 7 m[5,0,18] + 4 m[5,0,19]
   - 5 m[5,1,16] - m[5,1,17] + 6639 m[5,1,18] - 6648 m[5,1,19]
   - 50000 c[5,4,-1.0] >= -56657
 R3211: 10 m[5,0,16] + 2 m[5,0,17] - 6641 m[5,0,18] - 6649 m[5,0,19]
   + m[5,1,16] + 3 m[5,1,17] - 6647 m[5,1,18] - 3 m[5,1,19]
   - 50000 c[5,4,-1.0] >= -63289
 R3212: 6 m[5,0,16] - m[5,0,17] - 2 m[5,0,18] + 4 m[5,0,19] - 2 m[5,1,17]
   + 5 m[5,1,18] + 4 m[5,1,19] - 50000 c[5,4,-1.0] >= -49999
 R3213: - 17 m[5,0,16] - 4 m[5,0,17] + 5 m[5,0,18] - m[5,0,19]
   + 4 m[5,1,16] + 2 m[5,1,17] + 13 m[5,1,18] - 10 m[5,1,19]
   - 50000 c[5,4,-1.0] >= -50015
 R3214: - 2 m[5,0,16] + 4 m[5,0,17] + 11 m[5,0,18] - 2 m[5,0,19]
   + 9 m[5,1,16] + 9 m[5,1,17] + 14 m[5,1,18] + 14 m[5,1,19]
   - 50000 c[5,4,-1.0] >= -49984
 R3215: 5 m[5,0,16] + 2 m[5,0,17] + 2 m[5,0,18] + 4 m[5,0,19] + 3 m[5,1,17]
   + m[5,1,19] - 50000 c[5,4,-1.0] >= -49995
 R3216: - 3324 m[5,0,16] + m[5,0,17] + 3324 m[5,0,19] + m[5,1,16]
   - 583 m[5,1,17] - 584 m[5,1,18] - 2740 m[5,1,19] - 50000 c[5,4,-1.0]
   >= -53907
 R3217: 15 m[5,0,16] - 2 m[5,0,17] + 3 m[5,0,18] - 10 m[5,0,19] - m[5,1,16]
   - 3 m[5,1,17] - 11 m[5,1,18] - 5 m[5,1,19] - 50000 c[5,4,-1.0]
   >= -50017
 R3218: - 5 m[5,0,16] - 2 m[5,0,17] + m[5,0,18] - 10 m[5,0,19]
   - 3 m[5,1,16] - 3 m[5,1,17] - 11 m[5,1,18] + 15 m[5,1,19]
   - 50000 c[5,4,-1.0] >= -50019
 R3219: c[5,5,0.0] + c[5,5,-3.0] + c[5,5,-2.0] + c[5,5,-1.41504]
   + c[5,5,-1.0] = 1
 R3220: - m[5,0,20] - m[5,0,21] - m[5,0,22] - m[5,0,23] - m[5,1,20]
   - m[5,1,21] - m[5,1,22] - m[5,1,23] - 50000 c[5,5,0.0] >= -50000
 R3221: c[5,5,-3.0] = 0
 R3222: - m[5,0,20] - m[5,0,23] - m[5,1,22] - m[5,1,23] - 50000 c[5,5,-2.0]
   >= -50003
 R3223: m[5,0,20] + 2 m[5,0,23] + m[5,1,23] - 50000 c[5,5,-2.0] >= -49998
 R3224: 3 m[5,0,20] + m[5,0,23] + 4 m[5,1,22] + 2 m[5,1,23]
   - 50000 c[5,5,-2.0] >= -49995
 R3225: c[5,5,-1.41504] = 0
 R3226: - 6649 m[5,0,20] + 3 m[5,0,21] - 7 m[5,0,22] + 4 m[5,0,23]
   - 5 m[5,1,20] - m[5,1,21] + 6639 m[5,1,22] - 6648 m[5,1,23]
   - 50000 c[5,5,-1.0] >= -56657
 R3227: 10 m[5,0,20] + 2 m[5,0,21] - 6641 m[5,0,22] - 6649 m[5,0,23]
   + m[5,1,20] + 3 m[5,1,21] - 6647 m[5,1,22] - 3 m[5,1,23]
   - 50000 c[5,5,-1.0] >= -63289
 R3228: 6 m[5,0,20] - m[5,0,21] - 2 m[5,0,22] + 4 m[5,0,23] - 2 m[5,1,21]
   + 5 m[5,1,22] + 4 m[5,1,23] - 50000 c[5,5,-1.0] >= -49999
 R3229: - 17 m[5,0,20] - 4 m[5,0,21] + 5 m[5,0,22] - m[5,0,23]
   + 4 m[5,1,20] + 2 m[5,1,21] + 13 m[5,1,22] - 10 m[5,1,23]
   - 50000 c[5,5,-1.0] >= -50015
 R3230: - 2 m[5,0,20] + 4 m[5,0,21] + 11 m[5,0,22] - 2 m[5,0,23]
   + 9 m[5,1,20] + 9 m[5,1,21] + 14 m[5,1,22] + 14 m[5,1,23]
   - 50000 c[5,5,-1.0] >= -49984
 R3231: 5 m[5,0,20] + 2 m[5,0,21] + 2 m[5,0,22] + 4 m[5,0,23] + 3 m[5,1,21]
   + m[5,1,23] - 50000 c[5,5,-1.0] >= -49995
 R3232: - 3324 m[5,0,20] + m[5,0,21] + 3324 m[5,0,23] + m[5,1,20]
   - 583 m[5,1,21] - 584 m[5,1,22] - 2740 m[5,1,23] - 50000 c[5,5,-1.0]
   >= -53907
 R3233: 15 m[5,0,20] - 2 m[5,0,21] + 3 m[5,0,22] - 10 m[5,0,23] - m[5,1,20]
   - 3 m[5,1,21] - 11 m[5,1,22] - 5 m[5,1,23] - 50000 c[5,5,-1.0]
   >= -50017
 R3234: - 5 m[5,0,20] - 2 m[5,0,21] + m[5,0,22] - 10 m[5,0,23]
   - 3 m[5,1,20] - 3 m[5,1,21] - 11 m[5,1,22] + 15 m[5,1,23]
   - 50000 c[5,5,-1.0] >= -50019
 R3235: c[5,6,0.0] + c[5,6,-3.0] + c[5,6,-2.0] + c[5,6,-1.41504]
   + c[5,6,-1.0] = 1
 R3236: - m[5,0,24] - m[5,0,25] - m[5,0,26] - m[5,0,27] - m[5,1,24]
   - m[5,1,25] - m[5,1,26] - m[5,1,27] - 50000 c[5,6,0.0] >= -50000
 R3237: c[5,6,-3.0] = 0
 R3238: - m[5,0,24] - m[5,0,27] - m[5,1,26] - m[5,1,27] - 50000 c[5,6,-2.0]
   >= -50003
 R3239: m[5,0,24] + 2 m[5,0,27] + m[5,1,27] - 50000 c[5,6,-2.0] >= -49998
 R3240: 3 m[5,0,24] + m[5,0,27] + 4 m[5,1,26] + 2 m[5,1,27]
   - 50000 c[5,6,-2.0] >= -49995
 R3241: c[5,6,-1.41504] = 0
 R3242: - 6649 m[5,0,24] + 3 m[5,0,25] - 7 m[5,0,26] + 4 m[5,0,27]
   - 5 m[5,1,24] - m[5,1,25] + 6639 m[5,1,26] - 6648 m[5,1,27]
   - 50000 c[5,6,-1.0] >= -56657
 R3243: 10 m[5,0,24] + 2 m[5,0,25] - 6641 m[5,0,26] - 6649 m[5,0,27]
   + m[5,1,24] + 3 m[5,1,25] - 6647 m[5,1,26] - 3 m[5,1,27]
   - 50000 c[5,6,-1.0] >= -63289
 R3244: 6 m[5,0,24] - m[5,0,25] - 2 m[5,0,26] + 4 m[5,0,27] - 2 m[5,1,25]
   + 5 m[5,1,26] + 4 m[5,1,27] - 50000 c[5,6,-1.0] >= -49999
 R3245: - 17 m[5,0,24] - 4 m[5,0,25] + 5 m[5,0,26] - m[5,0,27]
   + 4 m[5,1,24] + 2 m[5,1,25] + 13 m[5,1,26] - 10 m[5,1,27]
   - 50000 c[5,6,-1.0] >= -50015
 R3246: - 2 m[5,0,24] + 4 m[5,0,25] + 11 m[5,0,26] - 2 m[5,0,27]
   + 9 m[5,1,24] + 9 m[5,1,25] + 14 m[5,1,26] + 14 m[5,1,27]
   - 50000 c[5,6,-1.0] >= -49984
 R3247: 5 m[5,0,24] + 2 m[5,0,25] + 2 m[5,0,26] + 4 m[5,0,27] + 3 m[5,1,25]
   + m[5,1,27] - 50000 c[5,6,-1.0] >= -49995
 R3248: - 3324 m[5,0,24] + m[5,0,25] + 3324 m[5,0,27] + m[5,1,24]
   - 583 m[5,1,25] - 584 m[5,1,26] - 2740 m[5,1,27] - 50000 c[5,6,-1.0]
   >= -53907
 R3249: 15 m[5,0,24] - 2 m[5,0,25] + 3 m[5,0,26] - 10 m[5,0,27] - m[5,1,24]
   - 3 m[5,1,25] - 11 m[5,1,26] - 5 m[5,1,27] - 50000 c[5,6,-1.0]
   >= -50017
 R3250: - 5 m[5,0,24] - 2 m[5,0,25] + m[5,0,26] - 10 m[5,0,27]
   - 3 m[5,1,24] - 3 m[5,1,25] - 11 m[5,1,26] + 15 m[5,1,27]
   - 50000 c[5,6,-1.0] >= -50019
 R3251: c[5,7,0.0] + c[5,7,-3.0] + c[5,7,-2.0] + c[5,7,-1.41504]
   + c[5,7,-1.0] = 1
 R3252: - m[5,0,28] - m[5,0,29] - m[5,0,30] - m[5,0,31] - m[5,1,28]
   - m[5,1,29] - m[5,1,30] - m[5,1,31] - 50000 c[5,7,0.0] >= -50000
 R3253: c[5,7,-3.0] = 0
 R3254: - m[5,0,28] - m[5,0,31] - m[5,1,30] - m[5,1,31] - 50000 c[5,7,-2.0]
   >= -50003
 R3255: m[5,0,28] + 2 m[5,0,31] + m[5,1,31] - 50000 c[5,7,-2.0] >= -49998
 R3256: 3 m[5,0,28] + m[5,0,31] + 4 m[5,1,30] + 2 m[5,1,31]
   - 50000 c[5,7,-2.0] >= -49995
 R3257: c[5,7,-1.41504] = 0
 R3258: - 6649 m[5,0,28] + 3 m[5,0,29] - 7 m[5,0,30] + 4 m[5,0,31]
   - 5 m[5,1,28] - m[5,1,29] + 6639 m[5,1,30] - 6648 m[5,1,31]
   - 50000 c[5,7,-1.0] >= -56657
 R3259: 10 m[5,0,28] + 2 m[5,0,29] - 6641 m[5,0,30] - 6649 m[5,0,31]
   + m[5,1,28] + 3 m[5,1,29] - 6647 m[5,1,30] - 3 m[5,1,31]
   - 50000 c[5,7,-1.0] >= -63289
 R3260: 6 m[5,0,28] - m[5,0,29] - 2 m[5,0,30] + 4 m[5,0,31] - 2 m[5,1,29]
   + 5 m[5,1,30] + 4 m[5,1,31] - 50000 c[5,7,-1.0] >= -49999
 R3261: - 17 m[5,0,28] - 4 m[5,0,29] + 5 m[5,0,30] - m[5,0,31]
   + 4 m[5,1,28] + 2 m[5,1,29] + 13 m[5,1,30] - 10 m[5,1,31]
   - 50000 c[5,7,-1.0] >= -50015
 R3262: - 2 m[5,0,28] + 4 m[5,0,29] + 11 m[5,0,30] - 2 m[5,0,31]
   + 9 m[5,1,28] + 9 m[5,1,29] + 14 m[5,1,30] + 14 m[5,1,31]
   - 50000 c[5,7,-1.0] >= -49984
 R3263: 5 m[5,0,28] + 2 m[5,0,29] + 2 m[5,0,30] + 4 m[5,0,31] + 3 m[5,1,29]
   + m[5,1,31] - 50000 c[5,7,-1.0] >= -49995
 R3264: - 3324 m[5,0,28] + m[5,0,29] + 3324 m[5,0,31] + m[5,1,28]
   - 583 m[5,1,29] - 584 m[5,1,30] - 2740 m[5,1,31] - 50000 c[5,7,-1.0]
   >= -53907
 R3265: 15 m[5,0,28] - 2 m[5,0,29] + 3 m[5,0,30] - 10 m[5,0,31] - m[5,1,28]
   - 3 m[5,1,29] - 11 m[5,1,30] - 5 m[5,1,31] - 50000 c[5,7,-1.0]
   >= -50017
 R3266: - 5 m[5,0,28] - 2 m[5,0,29] + m[5,0,30] - 10 m[5,0,31]
   - 3 m[5,1,28] - 3 m[5,1,29] - 11 m[5,1,30] + 15 m[5,1,31]
   - 50000 c[5,7,-1.0] >= -50019
 R3267: c[5,8,0.0] + c[5,8,-3.0] + c[5,8,-2.0] + c[5,8,-1.41504]
   + c[5,8,-1.0] = 1
 R3268: - m[5,0,32] - m[5,0,33] - m[5,0,34] - m[5,0,35] - m[5,1,32]
   - m[5,1,33] - m[5,1,34] - m[5,1,35] - 50000 c[5,8,0.0] >= -50000
 R3269: c[5,8,-3.0] = 0
 R3270: - m[5,0,32] - m[5,0,35] - m[5,1,34] - m[5,1,35] - 50000 c[5,8,-2.0]
   >= -50003
 R3271: m[5,0,32] + 2 m[5,0,35] + m[5,1,35] - 50000 c[5,8,-2.0] >= -49998
 R3272: 3 m[5,0,32] + m[5,0,35] + 4 m[5,1,34] + 2 m[5,1,35]
   - 50000 c[5,8,-2.0] >= -49995
 R3273: c[5,8,-1.41504] = 0
 R3274: - 6649 m[5,0,32] + 3 m[5,0,33] - 7 m[5,0,34] + 4 m[5,0,35]
   - 5 m[5,1,32] - m[5,1,33] + 6639 m[5,1,34] - 6648 m[5,1,35]
   - 50000 c[5,8,-1.0] >= -56657
 R3275: 10 m[5,0,32] + 2 m[5,0,33] - 6641 m[5,0,34] - 6649 m[5,0,35]
   + m[5,1,32] + 3 m[5,1,33] - 6647 m[5,1,34] - 3 m[5,1,35]
   - 50000 c[5,8,-1.0] >= -63289
 R3276: 6 m[5,0,32] - m[5,0,33] - 2 m[5,0,34] + 4 m[5,0,35] - 2 m[5,1,33]
   + 5 m[5,1,34] + 4 m[5,1,35] - 50000 c[5,8,-1.0] >= -49999
 R3277: - 17 m[5,0,32] - 4 m[5,0,33] + 5 m[5,0,34] - m[5,0,35]
   + 4 m[5,1,32] + 2 m[5,1,33] + 13 m[5,1,34] - 10 m[5,1,35]
   - 50000 c[5,8,-1.0] >= -50015
 R3278: - 2 m[5,0,32] + 4 m[5,0,33] + 11 m[5,0,34] - 2 m[5,0,35]
   + 9 m[5,1,32] + 9 m[5,1,33] + 14 m[5,1,34] + 14 m[5,1,35]
   - 50000 c[5,8,-1.0] >= -49984
 R3279: 5 m[5,0,32] + 2 m[5,0,33] + 2 m[5,0,34] + 4 m[5,0,35] + 3 m[5,1,33]
   + m[5,1,35] - 50000 c[5,8,-1.0] >= -49995
 R3280: - 3324 m[5,0,32] + m[5,0,33] + 3324 m[5,0,35] + m[5,1,32]
   - 583 m[5,1,33] - 584 m[5,1,34] - 2740 m[5,1,35] - 50000 c[5,8,-1.0]
   >= -53907
 R3281: 15 m[5,0,32] - 2 m[5,0,33] + 3 m[5,0,34] - 10 m[5,0,35] - m[5,1,32]
   - 3 m[5,1,33] - 11 m[5,1,34] - 5 m[5,1,35] - 50000 c[5,8,-1.0]
   >= -50017
 R3282: - 5 m[5,0,32] - 2 m[5,0,33] + m[5,0,34] - 10 m[5,0,35]
   - 3 m[5,1,32] - 3 m[5,1,33] - 11 m[5,1,34] + 15 m[5,1,35]
   - 50000 c[5,8,-1.0] >= -50019
 R3283: c[5,9,0.0] + c[5,9,-3.0] + c[5,9,-2.0] + c[5,9,-1.41504]
   + c[5,9,-1.0] = 1
 R3284: - m[5,0,36] - m[5,0,37] - m[5,0,38] - m[5,0,39] - m[5,1,36]
   - m[5,1,37] - m[5,1,38] - m[5,1,39] - 50000 c[5,9,0.0] >= -50000
 R3285: c[5,9,-3.0] = 0
 R3286: - m[5,0,36] - m[5,0,39] - m[5,1,38] - m[5,1,39] - 50000 c[5,9,-2.0]
   >= -50003
 R3287: m[5,0,36] + 2 m[5,0,39] + m[5,1,39] - 50000 c[5,9,-2.0] >= -49998
 R3288: 3 m[5,0,36] + m[5,0,39] + 4 m[5,1,38] + 2 m[5,1,39]
   - 50000 c[5,9,-2.0] >= -49995
 R3289: c[5,9,-1.41504] = 0
 R3290: - 6649 m[5,0,36] + 3 m[5,0,37] - 7 m[5,0,38] + 4 m[5,0,39]
   - 5 m[5,1,36] - m[5,1,37] + 6639 m[5,1,38] - 6648 m[5,1,39]
   - 50000 c[5,9,-1.0] >= -56657
 R3291: 10 m[5,0,36] + 2 m[5,0,37] - 6641 m[5,0,38] - 6649 m[5,0,39]
   + m[5,1,36] + 3 m[5,1,37] - 6647 m[5,1,38] - 3 m[5,1,39]
   - 50000 c[5,9,-1.0] >= -63289
 R3292: 6 m[5,0,36] - m[5,0,37] - 2 m[5,0,38] + 4 m[5,0,39] - 2 m[5,1,37]
   + 5 m[5,1,38] + 4 m[5,1,39] - 50000 c[5,9,-1.0] >= -49999
 R3293: - 17 m[5,0,36] - 4 m[5,0,37] + 5 m[5,0,38] - m[5,0,39]
   + 4 m[5,1,36] + 2 m[5,1,37] + 13 m[5,1,38] - 10 m[5,1,39]
   - 50000 c[5,9,-1.0] >= -50015
 R3294: - 2 m[5,0,36] + 4 m[5,0,37] + 11 m[5,0,38] - 2 m[5,0,39]
   + 9 m[5,1,36] + 9 m[5,1,37] + 14 m[5,1,38] + 14 m[5,1,39]
   - 50000 c[5,9,-1.0] >= -49984
 R3295: 5 m[5,0,36] + 2 m[5,0,37] + 2 m[5,0,38] + 4 m[5,0,39] + 3 m[5,1,37]
   + m[5,1,39] - 50000 c[5,9,-1.0] >= -49995
 R3296: - 3324 m[5,0,36] + m[5,0,37] + 3324 m[5,0,39] + m[5,1,36]
   - 583 m[5,1,37] - 584 m[5,1,38] - 2740 m[5,1,39] - 50000 c[5,9,-1.0]
   >= -53907
 R3297: 15 m[5,0,36] - 2 m[5,0,37] + 3 m[5,0,38] - 10 m[5,0,39] - m[5,1,36]
   - 3 m[5,1,37] - 11 m[5,1,38] - 5 m[5,1,39] - 50000 c[5,9,-1.0]
   >= -50017
 R3298: - 5 m[5,0,36] - 2 m[5,0,37] + m[5,0,38] - 10 m[5,0,39]
   - 3 m[5,1,36] - 3 m[5,1,37] - 11 m[5,1,38] + 15 m[5,1,39]
   - 50000 c[5,9,-1.0] >= -50019
 R3299: c[5,10,0.0] + c[5,10,-3.0] + c[5,10,-2.0] + c[5,10,-1.41504]
   + c[5,10,-1.0] = 1
 R3300: - m[5,0,40] - m[5,0,41] - m[5,0,42] - m[5,0,43] - m[5,1,40]
   - m[5,1,41] - m[5,1,42] - m[5,1,43] - 50000 c[5,10,0.0] >= -50000
 R3301: c[5,10,-3.0] = 0
 R3302: - m[5,0,40] - m[5,0,43] - m[5,1,42] - m[5,1,43]
   - 50000 c[5,10,-2.0] >= -50003
 R3303: m[5,0,40] + 2 m[5,0,43] + m[5,1,43] - 50000 c[5,10,-2.0] >= -49998
 R3304: 3 m[5,0,40] + m[5,0,43] + 4 m[5,1,42] + 2 m[5,1,43]
   - 50000 c[5,10,-2.0] >= -49995
 R3305: c[5,10,-1.41504] = 0
 R3306: - 6649 m[5,0,40] + 3 m[5,0,41] - 7 m[5,0,42] + 4 m[5,0,43]
   - 5 m[5,1,40] - m[5,1,41] + 6639 m[5,1,42] - 6648 m[5,1,43]
   - 50000 c[5,10,-1.0] >= -56657
 R3307: 10 m[5,0,40] + 2 m[5,0,41] - 6641 m[5,0,42] - 6649 m[5,0,43]
   + m[5,1,40] + 3 m[5,1,41] - 6647 m[5,1,42] - 3 m[5,1,43]
   - 50000 c[5,10,-1.0] >= -63289
 R3308: 6 m[5,0,40] - m[5,0,41] - 2 m[5,0,42] + 4 m[5,0,43] - 2 m[5,1,41]
   + 5 m[5,1,42] + 4 m[5,1,43] - 50000 c[5,10,-1.0] >= -49999
 R3309: - 17 m[5,0,40] - 4 m[5,0,41] + 5 m[5,0,42] - m[5,0,43]
   + 4 m[5,1,40] + 2 m[5,1,41] + 13 m[5,1,42] - 10 m[5,1,43]
   - 50000 c[5,10,-1.0] >= -50015
 R3310: - 2 m[5,0,40] + 4 m[5,0,41] + 11 m[5,0,42] - 2 m[5,0,43]
   + 9 m[5,1,40] + 9 m[5,1,41] + 14 m[5,1,42] + 14 m[5,1,43]
   - 50000 c[5,10,-1.0] >= -49984
 R3311: 5 m[5,0,40] + 2 m[5,0,41] + 2 m[5,0,42] + 4 m[5,0,43] + 3 m[5,1,41]
   + m[5,1,43] - 50000 c[5,10,-1.0] >= -49995
 R3312: - 3324 m[5,0,40] + m[5,0,41] + 3324 m[5,0,43] + m[5,1,40]
   - 583 m[5,1,41] - 584 m[5,1,42] - 2740 m[5,1,43] - 50000 c[5,10,-1.0]
   >= -53907
 R3313: 15 m[5,0,40] - 2 m[5,0,41] + 3 m[5,0,42] - 10 m[5,0,43] - m[5,1,40]
   - 3 m[5,1,41] - 11 m[5,1,42] - 5 m[5,1,43] - 50000 c[5,10,-1.0]
   >= -50017
 R3314: - 5 m[5,0,40] - 2 m[5,0,41] + m[5,0,42] - 10 m[5,0,43]
   - 3 m[5,1,40] - 3 m[5,1,41] - 11 m[5,1,42] + 15 m[5,1,43]
   - 50000 c[5,10,-1.0] >= -50019
 R3315: c[5,11,0.0] + c[5,11,-3.0] + c[5,11,-2.0] + c[5,11,-1.41504]
   + c[5,11,-1.0] = 1
 R3316: - m[5,0,44] - m[5,0,45] - m[5,0,46] - m[5,0,47] - m[5,1,44]
   - m[5,1,45] - m[5,1,46] - m[5,1,47] - 50000 c[5,11,0.0] >= -50000
 R3317: c[5,11,-3.0] = 0
 R3318: - m[5,0,44] - m[5,0,47] - m[5,1,46] - m[5,1,47]
   - 50000 c[5,11,-2.0] >= -50003
 R3319: m[5,0,44] + 2 m[5,0,47] + m[5,1,47] - 50000 c[5,11,-2.0] >= -49998
 R3320: 3 m[5,0,44] + m[5,0,47] + 4 m[5,1,46] + 2 m[5,1,47]
   - 50000 c[5,11,-2.0] >= -49995
 R3321: c[5,11,-1.41504] = 0
 R3322: - 6649 m[5,0,44] + 3 m[5,0,45] - 7 m[5,0,46] + 4 m[5,0,47]
   - 5 m[5,1,44] - m[5,1,45] + 6639 m[5,1,46] - 6648 m[5,1,47]
   - 50000 c[5,11,-1.0] >= -56657
 R3323: 10 m[5,0,44] + 2 m[5,0,45] - 6641 m[5,0,46] - 6649 m[5,0,47]
   + m[5,1,44] + 3 m[5,1,45] - 6647 m[5,1,46] - 3 m[5,1,47]
   - 50000 c[5,11,-1.0] >= -63289
 R3324: 6 m[5,0,44] - m[5,0,45] - 2 m[5,0,46] + 4 m[5,0,47] - 2 m[5,1,45]
   + 5 m[5,1,46] + 4 m[5,1,47] - 50000 c[5,11,-1.0] >= -49999
 R3325: - 17 m[5,0,44] - 4 m[5,0,45] + 5 m[5,0,46] - m[5,0,47]
   + 4 m[5,1,44] + 2 m[5,1,45] + 13 m[5,1,46] - 10 m[5,1,47]
   - 50000 c[5,11,-1.0] >= -50015
 R3326: - 2 m[5,0,44] + 4 m[5,0,45] + 11 m[5,0,46] - 2 m[5,0,47]
   + 9 m[5,1,44] + 9 m[5,1,45] + 14 m[5,1,46] + 14 m[5,1,47]
   - 50000 c[5,11,-1.0] >= -49984
 R3327: 5 m[5,0,44] + 2 m[5,0,45] + 2 m[5,0,46] + 4 m[5,0,47] + 3 m[5,1,45]
   + m[5,1,47] - 50000 c[5,11,-1.0] >= -49995
 R3328: - 3324 m[5,0,44] + m[5,0,45] + 3324 m[5,0,47] + m[5,1,44]
   - 583 m[5,1,45] - 584 m[5,1,46] - 2740 m[5,1,47] - 50000 c[5,11,-1.0]
   >= -53907
 R3329: 15 m[5,0,44] - 2 m[5,0,45] + 3 m[5,0,46] - 10 m[5,0,47] - m[5,1,44]
   - 3 m[5,1,45] - 11 m[5,1,46] - 5 m[5,1,47] - 50000 c[5,11,-1.0]
   >= -50017
 R3330: - 5 m[5,0,44] - 2 m[5,0,45] + m[5,0,46] - 10 m[5,0,47]
   - 3 m[5,1,44] - 3 m[5,1,45] - 11 m[5,1,46] + 15 m[5,1,47]
   - 50000 c[5,11,-1.0] >= -50019
 R3331: c[5,12,0.0] + c[5,12,-3.0] + c[5,12,-2.0] + c[5,12,-1.41504]
   + c[5,12,-1.0] = 1
 R3332: - m[5,0,48] - m[5,0,49] - m[5,0,50] - m[5,0,51] - m[5,1,48]
   - m[5,1,49] - m[5,1,50] - m[5,1,51] - 50000 c[5,12,0.0] >= -50000
 R3333: c[5,12,-3.0] = 0
 R3334: - m[5,0,48] - m[5,0,51] - m[5,1,50] - m[5,1,51]
   - 50000 c[5,12,-2.0] >= -50003
 R3335: m[5,0,48] + 2 m[5,0,51] + m[5,1,51] - 50000 c[5,12,-2.0] >= -49998
 R3336: 3 m[5,0,48] + m[5,0,51] + 4 m[5,1,50] + 2 m[5,1,51]
   - 50000 c[5,12,-2.0] >= -49995
 R3337: c[5,12,-1.41504] = 0
 R3338: - 6649 m[5,0,48] + 3 m[5,0,49] - 7 m[5,0,50] + 4 m[5,0,51]
   - 5 m[5,1,48] - m[5,1,49] + 6639 m[5,1,50] - 6648 m[5,1,51]
   - 50000 c[5,12,-1.0] >= -56657
 R3339: 10 m[5,0,48] + 2 m[5,0,49] - 6641 m[5,0,50] - 6649 m[5,0,51]
   + m[5,1,48] + 3 m[5,1,49] - 6647 m[5,1,50] - 3 m[5,1,51]
   - 50000 c[5,12,-1.0] >= -63289
 R3340: 6 m[5,0,48] - m[5,0,49] - 2 m[5,0,50] + 4 m[5,0,51] - 2 m[5,1,49]
   + 5 m[5,1,50] + 4 m[5,1,51] - 50000 c[5,12,-1.0] >= -49999
 R3341: - 17 m[5,0,48] - 4 m[5,0,49] + 5 m[5,0,50] - m[5,0,51]
   + 4 m[5,1,48] + 2 m[5,1,49] + 13 m[5,1,50] - 10 m[5,1,51]
   - 50000 c[5,12,-1.0] >= -50015
 R3342: - 2 m[5,0,48] + 4 m[5,0,49] + 11 m[5,0,50] - 2 m[5,0,51]
   + 9 m[5,1,48] + 9 m[5,1,49] + 14 m[5,1,50] + 14 m[5,1,51]
   - 50000 c[5,12,-1.0] >= -49984
 R3343: 5 m[5,0,48] + 2 m[5,0,49] + 2 m[5,0,50] + 4 m[5,0,51] + 3 m[5,1,49]
   + m[5,1,51] - 50000 c[5,12,-1.0] >= -49995
 R3344: - 3324 m[5,0,48] + m[5,0,49] + 3324 m[5,0,51] + m[5,1,48]
   - 583 m[5,1,49] - 584 m[5,1,50] - 2740 m[5,1,51] - 50000 c[5,12,-1.0]
   >= -53907
 R3345: 15 m[5,0,48] - 2 m[5,0,49] + 3 m[5,0,50] - 10 m[5,0,51] - m[5,1,48]
   - 3 m[5,1,49] - 11 m[5,1,50] - 5 m[5,1,51] - 50000 c[5,12,-1.0]
   >= -50017
 R3346: - 5 m[5,0,48] - 2 m[5,0,49] + m[5,0,50] - 10 m[5,0,51]
   - 3 m[5,1,48] - 3 m[5,1,49] - 11 m[5,1,50] + 15 m[5,1,51]
   - 50000 c[5,12,-1.0] >= -50019
 R3347: c[5,13,0.0] + c[5,13,-3.0] + c[5,13,-2.0] + c[5,13,-1.41504]
   + c[5,13,-1.0] = 1
 R3348: c[5,13,0.0] = 0
 R3349: c[5,13,-3.0] = 0
 R3350: - 5 m[5,0,53] + 4 m[5,0,54] - m[5,1,52] + 4 m[5,1,53] - m[5,1,54]
   + m[5,1,55] - 50000 c[5,13,-2.0] >= -50002
 R3351: 7978 m[5,0,53] + m[5,0,54] + 7979 m[5,1,52] + m[5,1,53]
   - 7979 m[5,1,54] + 7979 m[5,1,55] - 50000 c[5,13,-2.0] >= -50000
 R3352: m[5,0,53] - m[5,1,52] + m[5,1,54] + m[5,1,55] - 50000 c[5,13,-2.0]
   >= -50000
 R3353: - 5 m[5,0,53] - 4 m[5,0,54] + m[5,1,52] - 4 m[5,1,53] + m[5,1,54]
   + m[5,1,55] - 50000 c[5,13,-2.0] >= -50008
 R3354: - m[5,0,53] - m[5,1,52] + m[5,1,54] - m[5,1,55]
   - 50000 c[5,13,-2.0] >= -50002
 R3355: 5 m[5,0,53] + 4 m[5,0,54] + m[5,1,52] - 4 m[5,1,53] + m[5,1,54]
   - m[5,1,55] - 50000 c[5,13,-2.0] >= -50000
 R3356: 5 m[5,0,53] - 4 m[5,0,54] - m[5,1,52] + 4 m[5,1,53] - m[5,1,54]
   - m[5,1,55] - 50000 c[5,13,-2.0] >= -50002
 R3357: - 5 m[5,0,53] + 4 m[5,0,54] + m[5,1,52] + 4 m[5,1,53] - m[5,1,54]
   - m[5,1,55] - 50000 c[5,13,-2.0] >= -50002
 R3358: c[5,13,-1.41504] = 0
 R3359: c[5,13,-1.0] = 0
 R3360: c[5,14,0.0] + c[5,14,-3.0] + c[5,14,-2.0] + c[5,14,-1.41504]
   + c[5,14,-1.0] = 1
 R3361: - m[5,0,56] - m[5,0,57] - m[5,0,58] - m[5,0,59] - m[5,1,56]
   - m[5,1,57] - m[5,1,58] - m[5,1,59] - 50000 c[5,14,0.0] >= -50000
 R3362: c[5,14,-3.0] = 0
 R3363: - m[5,0,56] - m[5,0,59] - m[5,1,58] - m[5,1,59]
   - 50000 c[5,14,-2.0] >= -50003
 R3364: m[5,0,56] + 2 m[5,0,59] + m[5,1,59] - 50000 c[5,14,-2.0] >= -49998
 R3365: 3 m[5,0,56] + m[5,0,59] + 4 m[5,1,58] + 2 m[5,1,59]
   - 50000 c[5,14,-2.0] >= -49995
 R3366: c[5,14,-1.41504] = 0
 R3367: - 6649 m[5,0,56] + 3 m[5,0,57] - 7 m[5,0,58] + 4 m[5,0,59]
   - 5 m[5,1,56] - m[5,1,57] + 6639 m[5,1,58] - 6648 m[5,1,59]
   - 50000 c[5,14,-1.0] >= -56657
 R3368: 10 m[5,0,56] + 2 m[5,0,57] - 6641 m[5,0,58] - 6649 m[5,0,59]
   + m[5,1,56] + 3 m[5,1,57] - 6647 m[5,1,58] - 3 m[5,1,59]
   - 50000 c[5,14,-1.0] >= -63289
 R3369: 6 m[5,0,56] - m[5,0,57] - 2 m[5,0,58] + 4 m[5,0,59] - 2 m[5,1,57]
   + 5 m[5,1,58] + 4 m[5,1,59] - 50000 c[5,14,-1.0] >= -49999
 R3370: - 17 m[5,0,56] - 4 m[5,0,57] + 5 m[5,0,58] - m[5,0,59]
   + 4 m[5,1,56] + 2 m[5,1,57] + 13 m[5,1,58] - 10 m[5,1,59]
   - 50000 c[5,14,-1.0] >= -50015
 R3371: - 2 m[5,0,56] + 4 m[5,0,57] + 11 m[5,0,58] - 2 m[5,0,59]
   + 9 m[5,1,56] + 9 m[5,1,57] + 14 m[5,1,58] + 14 m[5,1,59]
   - 50000 c[5,14,-1.0] >= -49984
 R3372: 5 m[5,0,56] + 2 m[5,0,57] + 2 m[5,0,58] + 4 m[5,0,59] + 3 m[5,1,57]
   + m[5,1,59] - 50000 c[5,14,-1.0] >= -49995
 R3373: - 3324 m[5,0,56] + m[5,0,57] + 3324 m[5,0,59] + m[5,1,56]
   - 583 m[5,1,57] - 584 m[5,1,58] - 2740 m[5,1,59] - 50000 c[5,14,-1.0]
   >= -53907
 R3374: 15 m[5,0,56] - 2 m[5,0,57] + 3 m[5,0,58] - 10 m[5,0,59] - m[5,1,56]
   - 3 m[5,1,57] - 11 m[5,1,58] - 5 m[5,1,59] - 50000 c[5,14,-1.0]
   >= -50017
 R3375: - 5 m[5,0,56] - 2 m[5,0,57] + m[5,0,58] - 10 m[5,0,59]
   - 3 m[5,1,56] - 3 m[5,1,57] - 11 m[5,1,58] + 15 m[5,1,59]
   - 50000 c[5,14,-1.0] >= -50019
 R3376: c[5,15,0.0] + c[5,15,-3.0] + c[5,15,-2.0] + c[5,15,-1.41504]
   + c[5,15,-1.0] = 1
 R3377: - m[5,0,60] - m[5,0,61] - m[5,0,62] - m[5,0,63] - m[5,1,60]
   - m[5,1,61] - m[5,1,62] - m[5,1,63] - 50000 c[5,15,0.0] >= -50000
 R3378: c[5,15,-3.0] = 0
 R3379: - m[5,0,60] - m[5,0,63] - m[5,1,62] - m[5,1,63]
   - 50000 c[5,15,-2.0] >= -50003
 R3380: m[5,0,60] + 2 m[5,0,63] + m[5,1,63] - 50000 c[5,15,-2.0] >= -49998
 R3381: 3 m[5,0,60] + m[5,0,63] + 4 m[5,1,62] + 2 m[5,1,63]
   - 50000 c[5,15,-2.0] >= -49995
 R3382: c[5,15,-1.41504] = 0
 R3383: - 6649 m[5,0,60] + 3 m[5,0,61] - 7 m[5,0,62] + 4 m[5,0,63]
   - 5 m[5,1,60] - m[5,1,61] + 6639 m[5,1,62] - 6648 m[5,1,63]
   - 50000 c[5,15,-1.0] >= -56657
 R3384: 10 m[5,0,60] + 2 m[5,0,61] - 6641 m[5,0,62] - 6649 m[5,0,63]
   + m[5,1,60] + 3 m[5,1,61] - 6647 m[5,1,62] - 3 m[5,1,63]
   - 50000 c[5,15,-1.0] >= -63289
 R3385: 6 m[5,0,60] - m[5,0,61] - 2 m[5,0,62] + 4 m[5,0,63] - 2 m[5,1,61]
   + 5 m[5,1,62] + 4 m[5,1,63] - 50000 c[5,15,-1.0] >= -49999
 R3386: - 17 m[5,0,60] - 4 m[5,0,61] + 5 m[5,0,62] - m[5,0,63]
   + 4 m[5,1,60] + 2 m[5,1,61] + 13 m[5,1,62] - 10 m[5,1,63]
   - 50000 c[5,15,-1.0] >= -50015
 R3387: - 2 m[5,0,60] + 4 m[5,0,61] + 11 m[5,0,62] - 2 m[5,0,63]
   + 9 m[5,1,60] + 9 m[5,1,61] + 14 m[5,1,62] + 14 m[5,1,63]
   - 50000 c[5,15,-1.0] >= -49984
 R3388: 5 m[5,0,60] + 2 m[5,0,61] + 2 m[5,0,62] + 4 m[5,0,63] + 3 m[5,1,61]
   + m[5,1,63] - 50000 c[5,15,-1.0] >= -49995
 R3389: - 3324 m[5,0,60] + m[5,0,61] + 3324 m[5,0,63] + m[5,1,60]
   - 583 m[5,1,61] - 584 m[5,1,62] - 2740 m[5,1,63] - 50000 c[5,15,-1.0]
   >= -53907
 R3390: 15 m[5,0,60] - 2 m[5,0,61] + 3 m[5,0,62] - 10 m[5,0,63] - m[5,1,60]
   - 3 m[5,1,61] - 11 m[5,1,62] - 5 m[5,1,63] - 50000 c[5,15,-1.0]
   >= -50017
 R3391: - 5 m[5,0,60] - 2 m[5,0,61] + m[5,0,62] - 10 m[5,0,63]
   - 3 m[5,1,60] - 3 m[5,1,61] - 11 m[5,1,62] + 15 m[5,1,63]
   - 50000 c[5,15,-1.0] >= -50019
 R3392: c[6,0,0.0] + c[6,0,-3.0] + c[6,0,-2.0] + c[6,0,-1.41504]
   + c[6,0,-1.0] = 1
 R3393: - m[6,0,0] - m[6,0,1] - m[6,0,2] - m[6,0,3] - m[6,1,0] - m[6,1,1]
   - m[6,1,2] - m[6,1,3] - 50000 c[6,0,0.0] >= -50000
 R3394: c[6,0,-3.0] = 0
 R3395: - m[6,0,0] - m[6,0,3] - m[6,1,2] - m[6,1,3] - 50000 c[6,0,-2.0]
   >= -50003
 R3396: m[6,0,0] + 2 m[6,0,3] + m[6,1,3] - 50000 c[6,0,-2.0] >= -49998
 R3397: 3 m[6,0,0] + m[6,0,3] + 4 m[6,1,2] + 2 m[6,1,3] - 50000 c[6,0,-2.0]
   >= -49995
 R3398: c[6,0,-1.41504] = 0
 R3399: - 6649 m[6,0,0] + 3 m[6,0,1] - 7 m[6,0,2] + 4 m[6,0,3] - 5 m[6,1,0]
   - m[6,1,1] + 6639 m[6,1,2] - 6648 m[6,1,3] - 50000 c[6,0,-1.0]
   >= -56657
 R3400: 10 m[6,0,0] + 2 m[6,0,1] - 6641 m[6,0,2] - 6649 m[6,0,3] + m[6,1,0]
   + 3 m[6,1,1] - 6647 m[6,1,2] - 3 m[6,1,3] - 50000 c[6,0,-1.0] >= -63289
 R3401: 6 m[6,0,0] - m[6,0,1] - 2 m[6,0,2] + 4 m[6,0,3] - 2 m[6,1,1]
   + 5 m[6,1,2] + 4 m[6,1,3] - 50000 c[6,0,-1.0] >= -49999
 R3402: - 17 m[6,0,0] - 4 m[6,0,1] + 5 m[6,0,2] - m[6,0,3] + 4 m[6,1,0]
   + 2 m[6,1,1] + 13 m[6,1,2] - 10 m[6,1,3] - 50000 c[6,0,-1.0] >= -50015
 R3403: - 2 m[6,0,0] + 4 m[6,0,1] + 11 m[6,0,2] - 2 m[6,0,3] + 9 m[6,1,0]
   + 9 m[6,1,1] + 14 m[6,1,2] + 14 m[6,1,3] - 50000 c[6,0,-1.0] >= -49984
 R3404: 5 m[6,0,0] + 2 m[6,0,1] + 2 m[6,0,2] + 4 m[6,0,3] + 3 m[6,1,1]
   + m[6,1,3] - 50000 c[6,0,-1.0] >= -49995
 R3405: - 3324 m[6,0,0] + m[6,0,1] + 3324 m[6,0,3] + m[6,1,0]
   - 583 m[6,1,1] - 584 m[6,1,2] - 2740 m[6,1,3] - 50000 c[6,0,-1.0]
   >= -53907
 R3406: 15 m[6,0,0] - 2 m[6,0,1] + 3 m[6,0,2] - 10 m[6,0,3] - m[6,1,0]
   - 3 m[6,1,1] - 11 m[6,1,2] - 5 m[6,1,3] - 50000 c[6,0,-1.0] >= -50017
 R3407: - 5 m[6,0,0] - 2 m[6,0,1] + m[6,0,2] - 10 m[6,0,3] - 3 m[6,1,0]
   - 3 m[6,1,1] - 11 m[6,1,2] + 15 m[6,1,3] - 50000 c[6,0,-1.0] >= -50019
 R3408: c[6,1,0.0] + c[6,1,-3.0] + c[6,1,-2.0] + c[6,1,-1.41504]
   + c[6,1,-1.0] = 1
 R3409: - m[6,0,4] - m[6,0,5] - m[6,0,6] - m[6,0,7] - m[6,1,4] - m[6,1,5]
   - m[6,1,6] - m[6,1,7] - 50000 c[6,1,0.0] >= -50000
 R3410: c[6,1,-3.0] = 0
 R3411: - m[6,0,4] - m[6,0,7] - m[6,1,6] - m[6,1,7] - 50000 c[6,1,-2.0]
   >= -50003
 R3412: m[6,0,4] + 2 m[6,0,7] + m[6,1,7] - 50000 c[6,1,-2.0] >= -49998
 R3413: 3 m[6,0,4] + m[6,0,7] + 4 m[6,1,6] + 2 m[6,1,7] - 50000 c[6,1,-2.0]
   >= -49995
 R3414: c[6,1,-1.41504] = 0
 R3415: - 6649 m[6,0,4] + 3 m[6,0,5] - 7 m[6,0,6] + 4 m[6,0,7] - 5 m[6,1,4]
   - m[6,1,5] + 6639 m[6,1,6] - 6648 m[6,1,7] - 50000 c[6,1,-1.0]
   >= -56657
 R3416: 10 m[6,0,4] + 2 m[6,0,5] - 6641 m[6,0,6] - 6649 m[6,0,7] + m[6,1,4]
   + 3 m[6,1,5] - 6647 m[6,1,6] - 3 m[6,1,7] - 50000 c[6,1,-1.0] >= -63289
 R3417: 6 m[6,0,4] - m[6,0,5] - 2 m[6,0,6] + 4 m[6,0,7] - 2 m[6,1,5]
   + 5 m[6,1,6] + 4 m[6,1,7] - 50000 c[6,1,-1.0] >= -49999
 R3418: - 17 m[6,0,4] - 4 m[6,0,5] + 5 m[6,0,6] - m[6,0,7] + 4 m[6,1,4]
   + 2 m[6,1,5] + 13 m[6,1,6] - 10 m[6,1,7] - 50000 c[6,1,-1.0] >= -50015
 R3419: - 2 m[6,0,4] + 4 m[6,0,5] + 11 m[6,0,6] - 2 m[6,0,7] + 9 m[6,1,4]
   + 9 m[6,1,5] + 14 m[6,1,6] + 14 m[6,1,7] - 50000 c[6,1,-1.0] >= -49984
 R3420: 5 m[6,0,4] + 2 m[6,0,5] + 2 m[6,0,6] + 4 m[6,0,7] + 3 m[6,1,5]
   + m[6,1,7] - 50000 c[6,1,-1.0] >= -49995
 R3421: - 3324 m[6,0,4] + m[6,0,5] + 3324 m[6,0,7] + m[6,1,4]
   - 583 m[6,1,5] - 584 m[6,1,6] - 2740 m[6,1,7] - 50000 c[6,1,-1.0]
   >= -53907
 R3422: 15 m[6,0,4] - 2 m[6,0,5] + 3 m[6,0,6] - 10 m[6,0,7] - m[6,1,4]
   - 3 m[6,1,5] - 11 m[6,1,6] - 5 m[6,1,7] - 50000 c[6,1,-1.0] >= -50017
 R3423: - 5 m[6,0,4] - 2 m[6,0,5] + m[6,0,6] - 10 m[6,0,7] - 3 m[6,1,4]
   - 3 m[6,1,5] - 11 m[6,1,6] + 15 m[6,1,7] - 50000 c[6,1,-1.0] >= -50019
 R3424: c[6,2,0.0] + c[6,2,-3.0] + c[6,2,-2.0] + c[6,2,-1.41504]
   + c[6,2,-1.0] = 1
 R3425: - m[6,0,8] - m[6,0,9] - m[6,0,10] - m[6,0,11] - m[6,1,8] - m[6,1,9]
   - m[6,1,10] - m[6,1,11] - 50000 c[6,2,0.0] >= -50000
 R3426: c[6,2,-3.0] = 0
 R3427: - m[6,0,8] - m[6,0,11] - m[6,1,10] - m[6,1,11] - 50000 c[6,2,-2.0]
   >= -50003
 R3428: m[6,0,8] + 2 m[6,0,11] + m[6,1,11] - 50000 c[6,2,-2.0] >= -49998
 R3429: 3 m[6,0,8] + m[6,0,11] + 4 m[6,1,10] + 2 m[6,1,11]
   - 50000 c[6,2,-2.0] >= -49995
 R3430: c[6,2,-1.41504] = 0
 R3431: - 6649 m[6,0,8] + 3 m[6,0,9] - 7 m[6,0,10] + 4 m[6,0,11]
   - 5 m[6,1,8] - m[6,1,9] + 6639 m[6,1,10] - 6648 m[6,1,11]
   - 50000 c[6,2,-1.0] >= -56657
 R3432: 10 m[6,0,8] + 2 m[6,0,9] - 6641 m[6,0,10] - 6649 m[6,0,11]
   + m[6,1,8] + 3 m[6,1,9] - 6647 m[6,1,10] - 3 m[6,1,11]
   - 50000 c[6,2,-1.0] >= -63289
 R3433: 6 m[6,0,8] - m[6,0,9] - 2 m[6,0,10] + 4 m[6,0,11] - 2 m[6,1,9]
   + 5 m[6,1,10] + 4 m[6,1,11] - 50000 c[6,2,-1.0] >= -49999
 R3434: - 17 m[6,0,8] - 4 m[6,0,9] + 5 m[6,0,10] - m[6,0,11] + 4 m[6,1,8]
   + 2 m[6,1,9] + 13 m[6,1,10] - 10 m[6,1,11] - 50000 c[6,2,-1.0]
   >= -50015
 R3435: - 2 m[6,0,8] + 4 m[6,0,9] + 11 m[6,0,10] - 2 m[6,0,11] + 9 m[6,1,8]
   + 9 m[6,1,9] + 14 m[6,1,10] + 14 m[6,1,11] - 50000 c[6,2,-1.0]
   >= -49984
 R3436: 5 m[6,0,8] + 2 m[6,0,9] + 2 m[6,0,10] + 4 m[6,0,11] + 3 m[6,1,9]
   + m[6,1,11] - 50000 c[6,2,-1.0] >= -49995
 R3437: - 3324 m[6,0,8] + m[6,0,9] + 3324 m[6,0,11] + m[6,1,8]
   - 583 m[6,1,9] - 584 m[6,1,10] - 2740 m[6,1,11] - 50000 c[6,2,-1.0]
   >= -53907
 R3438: 15 m[6,0,8] - 2 m[6,0,9] + 3 m[6,0,10] - 10 m[6,0,11] - m[6,1,8]
   - 3 m[6,1,9] - 11 m[6,1,10] - 5 m[6,1,11] - 50000 c[6,2,-1.0] >= -50017
 R3439: - 5 m[6,0,8] - 2 m[6,0,9] + m[6,0,10] - 10 m[6,0,11] - 3 m[6,1,8]
   - 3 m[6,1,9] - 11 m[6,1,10] + 15 m[6,1,11] - 50000 c[6,2,-1.0]
   >= -50019
 R3440: c[6,3,0.0] + c[6,3,-3.0] + c[6,3,-2.0] + c[6,3,-1.41504]
   + c[6,3,-1.0] = 1
 R3441: c[6,3,0.0] = 0
 R3442: - m[6,0,13] - m[6,1,13] - m[6,1,14] - 50000 c[6,3,-3.0] >= -50002
 R3443: m[6,0,13] + m[6,1,13] - m[6,1,14] - 50000 c[6,3,-3.0] >= -50000
 R3444: m[6,0,13] - m[6,1,13] + m[6,1,14] - 50000 c[6,3,-3.0] >= -50000
 R3445: - m[6,0,13] + m[6,1,13] + m[6,1,14] - 50000 c[6,3,-3.0] >= -50000
 R3446: c[6,3,-2.0] = 0
 R3447: c[6,3,-1.41504] = 0
 R3448: c[6,3,-1.0] = 0
 R3449: c[6,4,0.0] + c[6,4,-3.0] + c[6,4,-2.0] + c[6,4,-1.41504]
   + c[6,4,-1.0] = 1
 R3450: - m[6,0,16] - m[6,0,17] - m[6,0,18] - m[6,0,19] - m[6,1,16]
   - m[6,1,17] - m[6,1,18] - m[6,1,19] - 50000 c[6,4,0.0] >= -50000
 R3451: c[6,4,-3.0] = 0
 R3452: - m[6,0,16] - m[6,0,19] - m[6,1,18] - m[6,1,19] - 50000 c[6,4,-2.0]
   >= -50003
 R3453: m[6,0,16] + 2 m[6,0,19] + m[6,1,19] - 50000 c[6,4,-2.0] >= -49998
 R3454: 3 m[6,0,16] + m[6,0,19] + 4 m[6,1,18] + 2 m[6,1,19]
   - 50000 c[6,4,-2.0] >= -49995
 R3455: c[6,4,-1.41504] = 0
 R3456: - 6649 m[6,0,16] + 3 m[6,0,17] - 7 m[6,0,18] + 4 m[6,0,19]
   - 5 m[6,1,16] - m[6,1,17] + 6639 m[6,1,18] - 6648 m[6,1,19]
   - 50000 c[6,4,-1.0] >= -56657
 R3457: 10 m[6,0,16] + 2 m[6,0,17] - 6641 m[6,0,18] - 6649 m[6,0,19]
   + m[6,1,16] + 3 m[6,1,17] - 6647 m[6,1,18] - 3 m[6,1,19]
   - 50000 c[6,4,-1.0] >= -63289
 R3458: 6 m[6,0,16] - m[6,0,17] - 2 m[6,0,18] + 4 m[6,0,19] - 2 m[6,1,17]
   + 5 m[6,1,18] + 4 m[6,1,19] - 50000 c[6,4,-1.0] >= -49999
 R3459: - 17 m[6,0,16] - 4 m[6,0,17] + 5 m[6,0,18] - m[6,0,19]
   + 4 m[6,1,16] + 2 m[6,1,17] + 13 m[6,1,18] - 10 m[6,1,19]
   - 50000 c[6,4,-1.0] >= -50015
 R3460: - 2 m[6,0,16] + 4 m[6,0,17] + 11 m[6,0,18] - 2 m[6,0,19]
   + 9 m[6,1,16] + 9 m[6,1,17] + 14 m[6,1,18] + 14 m[6,1,19]
   - 50000 c[6,4,-1.0] >= -49984
 R3461: 5 m[6,0,16] + 2 m[6,0,17] + 2 m[6,0,18] + 4 m[6,0,19] + 3 m[6,1,17]
   + m[6,1,19] - 50000 c[6,4,-1.0] >= -49995
 R3462: - 3324 m[6,0,16] + m[6,0,17] + 3324 m[6,0,19] + m[6,1,16]
   - 583 m[6,1,17] - 584 m[6,1,18] - 2740 m[6,1,19] - 50000 c[6,4,-1.0]
   >= -53907
 R3463: 15 m[6,0,16] - 2 m[6,0,17] + 3 m[6,0,18] - 10 m[6,0,19] - m[6,1,16]
   - 3 m[6,1,17] - 11 m[6,1,18] - 5 m[6,1,19] - 50000 c[6,4,-1.0]
   >= -50017
 R3464: - 5 m[6,0,16] - 2 m[6,0,17] + m[6,0,18] - 10 m[6,0,19]
   - 3 m[6,1,16] - 3 m[6,1,17] - 11 m[6,1,18] + 15 m[6,1,19]
   - 50000 c[6,4,-1.0] >= -50019
 R3465: c[6,5,0.0] + c[6,5,-3.0] + c[6,5,-2.0] + c[6,5,-1.41504]
   + c[6,5,-1.0] = 1
 R3466: - m[6,0,20] - m[6,0,21] - m[6,0,22] - m[6,0,23] - m[6,1,20]
   - m[6,1,21] - m[6,1,22] - m[6,1,23] - 50000 c[6,5,0.0] >= -50000
 R3467: c[6,5,-3.0] = 0
 R3468: - m[6,0,20] - m[6,0,23] - m[6,1,22] - m[6,1,23] - 50000 c[6,5,-2.0]
   >= -50003
 R3469: m[6,0,20] + 2 m[6,0,23] + m[6,1,23] - 50000 c[6,5,-2.0] >= -49998
 R3470: 3 m[6,0,20] + m[6,0,23] + 4 m[6,1,22] + 2 m[6,1,23]
   - 50000 c[6,5,-2.0] >= -49995
 R3471: c[6,5,-1.41504] = 0
 R3472: - 6649 m[6,0,20] + 3 m[6,0,21] - 7 m[6,0,22] + 4 m[6,0,23]
   - 5 m[6,1,20] - m[6,1,21] + 6639 m[6,1,22] - 6648 m[6,1,23]
   - 50000 c[6,5,-1.0] >= -56657
 R3473: 10 m[6,0,20] + 2 m[6,0,21] - 6641 m[6,0,22] - 6649 m[6,0,23]
   + m[6,1,20] + 3 m[6,1,21] - 6647 m[6,1,22] - 3 m[6,1,23]
   - 50000 c[6,5,-1.0] >= -63289
 R3474: 6 m[6,0,20] - m[6,0,21] - 2 m[6,0,22] + 4 m[6,0,23] - 2 m[6,1,21]
   + 5 m[6,1,22] + 4 m[6,1,23] - 50000 c[6,5,-1.0] >= -49999
 R3475: - 17 m[6,0,20] - 4 m[6,0,21] + 5 m[6,0,22] - m[6,0,23]
   + 4 m[6,1,20] + 2 m[6,1,21] + 13 m[6,1,22] - 10 m[6,1,23]
   - 50000 c[6,5,-1.0] >= -50015
 R3476: - 2 m[6,0,20] + 4 m[6,0,21] + 11 m[6,0,22] - 2 m[6,0,23]
   + 9 m[6,1,20] + 9 m[6,1,21] + 14 m[6,1,22] + 14 m[6,1,23]
   - 50000 c[6,5,-1.0] >= -49984
 R3477: 5 m[6,0,20] + 2 m[6,0,21] + 2 m[6,0,22] + 4 m[6,0,23] + 3 m[6,1,21]
   + m[6,1,23] - 50000 c[6,5,-1.0] >= -49995
 R3478: - 3324 m[6,0,20] + m[6,0,21] + 3324 m[6,0,23] + m[6,1,20]
   - 583 m[6,1,21] - 584 m[6,1,22] - 2740 m[6,1,23] - 50000 c[6,5,-1.0]
   >= -53907
 R3479: 15 m[6,0,20] - 2 m[6,0,21] + 3 m[6,0,22] - 10 m[6,0,23] - m[6,1,20]
   - 3 m[6,1,21] - 11 m[6,1,22] - 5 m[6,1,23] - 50000 c[6,5,-1.0]
   >= -50017
 R3480: - 5 m[6,0,20] - 2 m[6,0,21] + m[6,0,22] - 10 m[6,0,23]
   - 3 m[6,1,20] - 3 m[6,1,21] - 11 m[6,1,22] + 15 m[6,1,23]
   - 50000 c[6,5,-1.0] >= -50019
 R3481: c[6,6,0.0] + c[6,6,-3.0] + c[6,6,-2.0] + c[6,6,-1.41504]
   + c[6,6,-1.0] = 1
 R3482: - m[6,0,24] - m[6,0,25] - m[6,0,26] - m[6,0,27] - m[6,1,24]
   - m[6,1,25] - m[6,1,26] - m[6,1,27] - 50000 c[6,6,0.0] >= -50000
 R3483: c[6,6,-3.0] = 0
 R3484: - m[6,0,24] - m[6,0,27] - m[6,1,26] - m[6,1,27] - 50000 c[6,6,-2.0]
   >= -50003
 R3485: m[6,0,24] + 2 m[6,0,27] + m[6,1,27] - 50000 c[6,6,-2.0] >= -49998
 R3486: 3 m[6,0,24] + m[6,0,27] + 4 m[6,1,26] + 2 m[6,1,27]
   - 50000 c[6,6,-2.0] >= -49995
 R3487: c[6,6,-1.41504] = 0
 R3488: - 6649 m[6,0,24] + 3 m[6,0,25] - 7 m[6,0,26] + 4 m[6,0,27]
   - 5 m[6,1,24] - m[6,1,25] + 6639 m[6,1,26] - 6648 m[6,1,27]
   - 50000 c[6,6,-1.0] >= -56657
 R3489: 10 m[6,0,24] + 2 m[6,0,25] - 6641 m[6,0,26] - 6649 m[6,0,27]
   + m[6,1,24] + 3 m[6,1,25] - 6647 m[6,1,26] - 3 m[6,1,27]
   - 50000 c[6,6,-1.0] >= -63289
 R3490: 6 m[6,0,24] - m[6,0,25] - 2 m[6,0,26] + 4 m[6,0,27] - 2 m[6,1,25]
   + 5 m[6,1,26] + 4 m[6,1,27] - 50000 c[6,6,-1.0] >= -49999
 R3491: - 17 m[6,0,24] - 4 m[6,0,25] + 5 m[6,0,26] - m[6,0,27]
   + 4 m[6,1,24] + 2 m[6,1,25] + 13 m[6,1,26] - 10 m[6,1,27]
   - 50000 c[6,6,-1.0] >= -50015
 R3492: - 2 m[6,0,24] + 4 m[6,0,25] + 11 m[6,0,26] - 2 m[6,0,27]
   + 9 m[6,1,24] + 9 m[6,1,25] + 14 m[6,1,26] + 14 m[6,1,27]
   - 50000 c[6,6,-1.0] >= -49984
 R3493: 5 m[6,0,24] + 2 m[6,0,25] + 2 m[6,0,26] + 4 m[6,0,27] + 3 m[6,1,25]
   + m[6,1,27] - 50000 c[6,6,-1.0] >= -49995
 R3494: - 3324 m[6,0,24] + m[6,0,25] + 3324 m[6,0,27] + m[6,1,24]
   - 583 m[6,1,25] - 584 m[6,1,26] - 2740 m[6,1,27] - 50000 c[6,6,-1.0]
   >= -53907
 R3495: 15 m[6,0,24] - 2 m[6,0,25] + 3 m[6,0,26] - 10 m[6,0,27] - m[6,1,24]
   - 3 m[6,1,25] - 11 m[6,1,26] - 5 m[6,1,27] - 50000 c[6,6,-1.0]
   >= -50017
 R3496: - 5 m[6,0,24] - 2 m[6,0,25] + m[6,0,26] - 10 m[6,0,27]
   - 3 m[6,1,24] - 3 m[6,1,25] - 11 m[6,1,26] + 15 m[6,1,27]
   - 50000 c[6,6,-1.0] >= -50019
 R3497: c[6,7,0.0] + c[6,7,-3.0] + c[6,7,-2.0] + c[6,7,-1.41504]
   + c[6,7,-1.0] = 1
 R3498: - m[6,0,28] - m[6,0,29] - m[6,0,30] - m[6,0,31] - m[6,1,28]
   - m[6,1,29] - m[6,1,30] - m[6,1,31] - 50000 c[6,7,0.0] >= -50000
 R3499: c[6,7,-3.0] = 0
 R3500: - m[6,0,28] - m[6,0,31] - m[6,1,30] - m[6,1,31] - 50000 c[6,7,-2.0]
   >= -50003
 R3501: m[6,0,28] + 2 m[6,0,31] + m[6,1,31] - 50000 c[6,7,-2.0] >= -49998
 R3502: 3 m[6,0,28] + m[6,0,31] + 4 m[6,1,30] + 2 m[6,1,31]
   - 50000 c[6,7,-2.0] >= -49995
 R3503: c[6,7,-1.41504] = 0
 R3504: - 6649 m[6,0,28] + 3 m[6,0,29] - 7 m[6,0,30] + 4 m[6,0,31]
   - 5 m[6,1,28] - m[6,1,29] + 6639 m[6,1,30] - 6648 m[6,1,31]
   - 50000 c[6,7,-1.0] >= -56657
 R3505: 10 m[6,0,28] + 2 m[6,0,29] - 6641 m[6,0,30] - 6649 m[6,0,31]
   + m[6,1,28] + 3 m[6,1,29] - 6647 m[6,1,30] - 3 m[6,1,31]
   - 50000 c[6,7,-1.0] >= -63289
 R3506: 6 m[6,0,28] - m[6,0,29] - 2 m[6,0,30] + 4 m[6,0,31] - 2 m[6,1,29]
   + 5 m[6,1,30] + 4 m[6,1,31] - 50000 c[6,7,-1.0] >= -49999
 R3507: - 17 m[6,0,28] - 4 m[6,0,29] + 5 m[6,0,30] - m[6,0,31]
   + 4 m[6,1,28] + 2 m[6,1,29] + 13 m[6,1,30] - 10 m[6,1,31]
   - 50000 c[6,7,-1.0] >= -50015
 R3508: - 2 m[6,0,28] + 4 m[6,0,29] + 11 m[6,0,30] - 2 m[6,0,31]
   + 9 m[6,1,28] + 9 m[6,1,29] + 14 m[6,1,30] + 14 m[6,1,31]
   - 50000 c[6,7,-1.0] >= -49984
 R3509: 5 m[6,0,28] + 2 m[6,0,29] + 2 m[6,0,30] + 4 m[6,0,31] + 3 m[6,1,29]
   + m[6,1,31] - 50000 c[6,7,-1.0] >= -49995
 R3510: - 3324 m[6,0,28] + m[6,0,29] + 3324 m[6,0,31] + m[6,1,28]
   - 583 m[6,1,29] - 584 m[6,1,30] - 2740 m[6,1,31] - 50000 c[6,7,-1.0]
   >= -53907
 R3511: 15 m[6,0,28] - 2 m[6,0,29] + 3 m[6,0,30] - 10 m[6,0,31] - m[6,1,28]
   - 3 m[6,1,29] - 11 m[6,1,30] - 5 m[6,1,31] - 50000 c[6,7,-1.0]
   >= -50017
 R3512: - 5 m[6,0,28] - 2 m[6,0,29] + m[6,0,30] - 10 m[6,0,31]
   - 3 m[6,1,28] - 3 m[6,1,29] - 11 m[6,1,30] + 15 m[6,1,31]
   - 50000 c[6,7,-1.0] >= -50019
 R3513: c[6,8,0.0] + c[6,8,-3.0] + c[6,8,-2.0] + c[6,8,-1.41504]
   + c[6,8,-1.0] = 1
 R3514: - m[6,0,32] - m[6,0,33] - m[6,0,34] - m[6,0,35] - m[6,1,32]
   - m[6,1,33] - m[6,1,34] - m[6,1,35] - 50000 c[6,8,0.0] >= -50000
 R3515: c[6,8,-3.0] = 0
 R3516: - m[6,0,32] - m[6,0,35] - m[6,1,34] - m[6,1,35] - 50000 c[6,8,-2.0]
   >= -50003
 R3517: m[6,0,32] + 2 m[6,0,35] + m[6,1,35] - 50000 c[6,8,-2.0] >= -49998
 R3518: 3 m[6,0,32] + m[6,0,35] + 4 m[6,1,34] + 2 m[6,1,35]
   - 50000 c[6,8,-2.0] >= -49995
 R3519: c[6,8,-1.41504] = 0
 R3520: - 6649 m[6,0,32] + 3 m[6,0,33] - 7 m[6,0,34] + 4 m[6,0,35]
   - 5 m[6,1,32] - m[6,1,33] + 6639 m[6,1,34] - 6648 m[6,1,35]
   - 50000 c[6,8,-1.0] >= -56657
 R3521: 10 m[6,0,32] + 2 m[6,0,33] - 6641 m[6,0,34] - 6649 m[6,0,35]
   + m[6,1,32] + 3 m[6,1,33] - 6647 m[6,1,34] - 3 m[6,1,35]
   - 50000 c[6,8,-1.0] >= -63289
 R3522: 6 m[6,0,32] - m[6,0,33] - 2 m[6,0,34] + 4 m[6,0,35] - 2 m[6,1,33]
   + 5 m[6,1,34] + 4 m[6,1,35] - 50000 c[6,8,-1.0] >= -49999
 R3523: - 17 m[6,0,32] - 4 m[6,0,33] + 5 m[6,0,34] - m[6,0,35]
   + 4 m[6,1,32] + 2 m[6,1,33] + 13 m[6,1,34] - 10 m[6,1,35]
   - 50000 c[6,8,-1.0] >= -50015
 R3524: - 2 m[6,0,32] + 4 m[6,0,33] + 11 m[6,0,34] - 2 m[6,0,35]
   + 9 m[6,1,32] + 9 m[6,1,33] + 14 m[6,1,34] + 14 m[6,1,35]
   - 50000 c[6,8,-1.0] >= -49984
 R3525: 5 m[6,0,32] + 2 m[6,0,33] + 2 m[6,0,34] + 4 m[6,0,35] + 3 m[6,1,33]
   + m[6,1,35] - 50000 c[6,8,-1.0] >= -49995
 R3526: - 3324 m[6,0,32] + m[6,0,33] + 3324 m[6,0,35] + m[6,1,32]
   - 583 m[6,1,33] - 584 m[6,1,34] - 2740 m[6,1,35] - 50000 c[6,8,-1.0]
   >= -53907
 R3527: 15 m[6,0,32] - 2 m[6,0,33] + 3 m[6,0,34] - 10 m[6,0,35] - m[6,1,32]
   - 3 m[6,1,33] - 11 m[6,1,34] - 5 m[6,1,35] - 50000 c[6,8,-1.0]
   >= -50017
 R3528: - 5 m[6,0,32] - 2 m[6,0,33] + m[6,0,34] - 10 m[6,0,35]
   - 3 m[6,1,32] - 3 m[6,1,33] - 11 m[6,1,34] + 15 m[6,1,35]
   - 50000 c[6,8,-1.0] >= -50019
 R3529: c[6,9,0.0] + c[6,9,-3.0] + c[6,9,-2.0] + c[6,9,-1.41504]
   + c[6,9,-1.0] = 1
 R3530: - m[6,0,36] - m[6,0,37] - m[6,0,38] - m[6,0,39] - m[6,1,36]
   - m[6,1,37] - m[6,1,38] - m[6,1,39] - 50000 c[6,9,0.0] >= -50000
 R3531: c[6,9,-3.0] = 0
 R3532: - m[6,0,36] - m[6,0,39] - m[6,1,38] - m[6,1,39] - 50000 c[6,9,-2.0]
   >= -50003
 R3533: m[6,0,36] + 2 m[6,0,39] + m[6,1,39] - 50000 c[6,9,-2.0] >= -49998
 R3534: 3 m[6,0,36] + m[6,0,39] + 4 m[6,1,38] + 2 m[6,1,39]
   - 50000 c[6,9,-2.0] >= -49995
 R3535: c[6,9,-1.41504] = 0
 R3536: - 6649 m[6,0,36] + 3 m[6,0,37] - 7 m[6,0,38] + 4 m[6,0,39]
   - 5 m[6,1,36] - m[6,1,37] + 6639 m[6,1,38] - 6648 m[6,1,39]
   - 50000 c[6,9,-1.0] >= -56657
 R3537: 10 m[6,0,36] + 2 m[6,0,37] - 6641 m[6,0,38] - 6649 m[6,0,39]
   + m[6,1,36] + 3 m[6,1,37] - 6647 m[6,1,38] - 3 m[6,1,39]
   - 50000 c[6,9,-1.0] >= -63289
 R3538: 6 m[6,0,36] - m[6,0,37] - 2 m[6,0,38] + 4 m[6,0,39] - 2 m[6,1,37]
   + 5 m[6,1,38] + 4 m[6,1,39] - 50000 c[6,9,-1.0] >= -49999
 R3539: - 17 m[6,0,36] - 4 m[6,0,37] + 5 m[6,0,38] - m[6,0,39]
   + 4 m[6,1,36] + 2 m[6,1,37] + 13 m[6,1,38] - 10 m[6,1,39]
   - 50000 c[6,9,-1.0] >= -50015
 R3540: - 2 m[6,0,36] + 4 m[6,0,37] + 11 m[6,0,38] - 2 m[6,0,39]
   + 9 m[6,1,36] + 9 m[6,1,37] + 14 m[6,1,38] + 14 m[6,1,39]
   - 50000 c[6,9,-1.0] >= -49984
 R3541: 5 m[6,0,36] + 2 m[6,0,37] + 2 m[6,0,38] + 4 m[6,0,39] + 3 m[6,1,37]
   + m[6,1,39] - 50000 c[6,9,-1.0] >= -49995
 R3542: - 3324 m[6,0,36] + m[6,0,37] + 3324 m[6,0,39] + m[6,1,36]
   - 583 m[6,1,37] - 584 m[6,1,38] - 2740 m[6,1,39] - 50000 c[6,9,-1.0]
   >= -53907
 R3543: 15 m[6,0,36] - 2 m[6,0,37] + 3 m[6,0,38] - 10 m[6,0,39] - m[6,1,36]
   - 3 m[6,1,37] - 11 m[6,1,38] - 5 m[6,1,39] - 50000 c[6,9,-1.0]
   >= -50017
 R3544: - 5 m[6,0,36] - 2 m[6,0,37] + m[6,0,38] - 10 m[6,0,39]
   - 3 m[6,1,36] - 3 m[6,1,37] - 11 m[6,1,38] + 15 m[6,1,39]
   - 50000 c[6,9,-1.0] >= -50019
 R3545: c[6,10,0.0] + c[6,10,-3.0] + c[6,10,-2.0] + c[6,10,-1.41504]
   + c[6,10,-1.0] = 1
 R3546: - m[6,0,40] - m[6,0,41] - m[6,0,42] - m[6,0,43] - m[6,1,40]
   - m[6,1,41] - m[6,1,42] - m[6,1,43] - 50000 c[6,10,0.0] >= -50000
 R3547: c[6,10,-3.0] = 0
 R3548: - m[6,0,40] - m[6,0,43] - m[6,1,42] - m[6,1,43]
   - 50000 c[6,10,-2.0] >= -50003
 R3549: m[6,0,40] + 2 m[6,0,43] + m[6,1,43] - 50000 c[6,10,-2.0] >= -49998
 R3550: 3 m[6,0,40] + m[6,0,43] + 4 m[6,1,42] + 2 m[6,1,43]
   - 50000 c[6,10,-2.0] >= -49995
 R3551: c[6,10,-1.41504] = 0
 R3552: - 6649 m[6,0,40] + 3 m[6,0,41] - 7 m[6,0,42] + 4 m[6,0,43]
   - 5 m[6,1,40] - m[6,1,41] + 6639 m[6,1,42] - 6648 m[6,1,43]
   - 50000 c[6,10,-1.0] >= -56657
 R3553: 10 m[6,0,40] + 2 m[6,0,41] - 6641 m[6,0,42] - 6649 m[6,0,43]
   + m[6,1,40] + 3 m[6,1,41] - 6647 m[6,1,42] - 3 m[6,1,43]
   - 50000 c[6,10,-1.0] >= -63289
 R3554: 6 m[6,0,40] - m[6,0,41] - 2 m[6,0,42] + 4 m[6,0,43] - 2 m[6,1,41]
   + 5 m[6,1,42] + 4 m[6,1,43] - 50000 c[6,10,-1.0] >= -49999
 R3555: - 17 m[6,0,40] - 4 m[6,0,41] + 5 m[6,0,42] - m[6,0,43]
   + 4 m[6,1,40] + 2 m[6,1,41] + 13 m[6,1,42] - 10 m[6,1,43]
   - 50000 c[6,10,-1.0] >= -50015
 R3556: - 2 m[6,0,40] + 4 m[6,0,41] + 11 m[6,0,42] - 2 m[6,0,43]
   + 9 m[6,1,40] + 9 m[6,1,41] + 14 m[6,1,42] + 14 m[6,1,43]
   - 50000 c[6,10,-1.0] >= -49984
 R3557: 5 m[6,0,40] + 2 m[6,0,41] + 2 m[6,0,42] + 4 m[6,0,43] + 3 m[6,1,41]
   + m[6,1,43] - 50000 c[6,10,-1.0] >= -49995
 R3558: - 3324 m[6,0,40] + m[6,0,41] + 3324 m[6,0,43] + m[6,1,40]
   - 583 m[6,1,41] - 584 m[6,1,42] - 2740 m[6,1,43] - 50000 c[6,10,-1.0]
   >= -53907
 R3559: 15 m[6,0,40] - 2 m[6,0,41] + 3 m[6,0,42] - 10 m[6,0,43] - m[6,1,40]
   - 3 m[6,1,41] - 11 m[6,1,42] - 5 m[6,1,43] - 50000 c[6,10,-1.0]
   >= -50017
 R3560: - 5 m[6,0,40] - 2 m[6,0,41] + m[6,0,42] - 10 m[6,0,43]
   - 3 m[6,1,40] - 3 m[6,1,41] - 11 m[6,1,42] + 15 m[6,1,43]
   - 50000 c[6,10,-1.0] >= -50019
 R3561: c[6,11,0.0] + c[6,11,-3.0] + c[6,11,-2.0] + c[6,11,-1.41504]
   + c[6,11,-1.0] = 1
 R3562: - m[6,0,44] - m[6,0,45] - m[6,0,46] - m[6,0,47] - m[6,1,44]
   - m[6,1,45] - m[6,1,46] - m[6,1,47] - 50000 c[6,11,0.0] >= -50000
 R3563: c[6,11,-3.0] = 0
 R3564: - m[6,0,44] - m[6,0,47] - m[6,1,46] - m[6,1,47]
   - 50000 c[6,11,-2.0] >= -50003
 R3565: m[6,0,44] + 2 m[6,0,47] + m[6,1,47] - 50000 c[6,11,-2.0] >= -49998
 R3566: 3 m[6,0,44] + m[6,0,47] + 4 m[6,1,46] + 2 m[6,1,47]
   - 50000 c[6,11,-2.0] >= -49995
 R3567: c[6,11,-1.41504] = 0
 R3568: - 6649 m[6,0,44] + 3 m[6,0,45] - 7 m[6,0,46] + 4 m[6,0,47]
   - 5 m[6,1,44] - m[6,1,45] + 6639 m[6,1,46] - 6648 m[6,1,47]
   - 50000 c[6,11,-1.0] >= -56657
 R3569: 10 m[6,0,44] + 2 m[6,0,45] - 6641 m[6,0,46] - 6649 m[6,0,47]
   + m[6,1,44] + 3 m[6,1,45] - 6647 m[6,1,46] - 3 m[6,1,47]
   - 50000 c[6,11,-1.0] >= -63289
 R3570: 6 m[6,0,44] - m[6,0,45] - 2 m[6,0,46] + 4 m[6,0,47] - 2 m[6,1,45]
   + 5 m[6,1,46] + 4 m[6,1,47] - 50000 c[6,11,-1.0] >= -49999
 R3571: - 17 m[6,0,44] - 4 m[6,0,45] + 5 m[6,0,46] - m[6,0,47]
   + 4 m[6,1,44] + 2 m[6,1,45] + 13 m[6,1,46] - 10 m[6,1,47]
   - 50000 c[6,11,-1.0] >= -50015
 R3572: - 2 m[6,0,44] + 4 m[6,0,45] + 11 m[6,0,46] - 2 m[6,0,47]
   + 9 m[6,1,44] + 9 m[6,1,45] + 14 m[6,1,46] + 14 m[6,1,47]
   - 50000 c[6,11,-1.0] >= -49984
 R3573: 5 m[6,0,44] + 2 m[6,0,45] + 2 m[6,0,46] + 4 m[6,0,47] + 3 m[6,1,45]
   + m[6,1,47] - 50000 c[6,11,-1.0] >= -49995
 R3574: - 3324 m[6,0,44] + m[6,0,45] + 3324 m[6,0,47] + m[6,1,44]
   - 583 m[6,1,45] - 584 m[6,1,46] - 2740 m[6,1,47] - 50000 c[6,11,-1.0]
   >= -53907
 R3575: 15 m[6,0,44] - 2 m[6,0,45] + 3 m[6,0,46] - 10 m[6,0,47] - m[6,1,44]
   - 3 m[6,1,45] - 11 m[6,1,46] - 5 m[6,1,47] - 50000 c[6,11,-1.0]
   >= -50017
 R3576: - 5 m[6,0,44] - 2 m[6,0,45] + m[6,0,46] - 10 m[6,0,47]
   - 3 m[6,1,44] - 3 m[6,1,45] - 11 m[6,1,46] + 15 m[6,1,47]
   - 50000 c[6,11,-1.0] >= -50019
 R3577: c[6,12,0.0] + c[6,12,-3.0] + c[6,12,-2.0] + c[6,12,-1.41504]
   + c[6,12,-1.0] = 1
 R3578: - m[6,0,48] - m[6,0,49] - m[6,0,50] - m[6,0,51] - m[6,1,48]
   - m[6,1,49] - m[6,1,50] - m[6,1,51] - 50000 c[6,12,0.0] >= -50000
 R3579: c[6,12,-3.0] = 0
 R3580: - m[6,0,48] - m[6,0,51] - m[6,1,50] - m[6,1,51]
   - 50000 c[6,12,-2.0] >= -50003
 R3581: m[6,0,48] + 2 m[6,0,51] + m[6,1,51] - 50000 c[6,12,-2.0] >= -49998
 R3582: 3 m[6,0,48] + m[6,0,51] + 4 m[6,1,50] + 2 m[6,1,51]
   - 50000 c[6,12,-2.0] >= -49995
 R3583: c[6,12,-1.41504] = 0
 R3584: - 6649 m[6,0,48] + 3 m[6,0,49] - 7 m[6,0,50] + 4 m[6,0,51]
   - 5 m[6,1,48] - m[6,1,49] + 6639 m[6,1,50] - 6648 m[6,1,51]
   - 50000 c[6,12,-1.0] >= -56657
 R3585: 10 m[6,0,48] + 2 m[6,0,49] - 6641 m[6,0,50] - 6649 m[6,0,51]
   + m[6,1,48] + 3 m[6,1,49] - 6647 m[6,1,50] - 3 m[6,1,51]
   - 50000 c[6,12,-1.0] >= -63289
 R3586: 6 m[6,0,48] - m[6,0,49] - 2 m[6,0,50] + 4 m[6,0,51] - 2 m[6,1,49]
   + 5 m[6,1,50] + 4 m[6,1,51] - 50000 c[6,12,-1.0] >= -49999
 R3587: - 17 m[6,0,48] - 4 m[6,0,49] + 5 m[6,0,50] - m[6,0,51]
   + 4 m[6,1,48] + 2 m[6,1,49] + 13 m[6,1,50] - 10 m[6,1,51]
   - 50000 c[6,12,-1.0] >= -50015
 R3588: - 2 m[6,0,48] + 4 m[6,0,49] + 11 m[6,0,50] - 2 m[6,0,51]
   + 9 m[6,1,48] + 9 m[6,1,49] + 14 m[6,1,50] + 14 m[6,1,51]
   - 50000 c[6,12,-1.0] >= -49984
 R3589: 5 m[6,0,48] + 2 m[6,0,49] + 2 m[6,0,50] + 4 m[6,0,51] + 3 m[6,1,49]
   + m[6,1,51] - 50000 c[6,12,-1.0] >= -49995
 R3590: - 3324 m[6,0,48] + m[6,0,49] + 3324 m[6,0,51] + m[6,1,48]
   - 583 m[6,1,49] - 584 m[6,1,50] - 2740 m[6,1,51] - 50000 c[6,12,-1.0]
   >= -53907
 R3591: 15 m[6,0,48] - 2 m[6,0,49] + 3 m[6,0,50] - 10 m[6,0,51] - m[6,1,48]
   - 3 m[6,1,49] - 11 m[6,1,50] - 5 m[6,1,51] - 50000 c[6,12,-1.0]
   >= -50017
 R3592: - 5 m[6,0,48] - 2 m[6,0,49] + m[6,0,50] - 10 m[6,0,51]
   - 3 m[6,1,48] - 3 m[6,1,49] - 11 m[6,1,50] + 15 m[6,1,51]
   - 50000 c[6,12,-1.0] >= -50019
 R3593: c[6,13,0.0] + c[6,13,-3.0] + c[6,13,-2.0] + c[6,13,-1.41504]
   + c[6,13,-1.0] = 1
 R3594: - m[6,0,52] - m[6,0,53] - m[6,0,54] - m[6,0,55] - m[6,1,52]
   - m[6,1,53] - m[6,1,54] - m[6,1,55] - 50000 c[6,13,0.0] >= -50000
 R3595: c[6,13,-3.0] = 0
 R3596: - m[6,0,52] - m[6,0,55] - m[6,1,54] - m[6,1,55]
   - 50000 c[6,13,-2.0] >= -50003
 R3597: m[6,0,52] + 2 m[6,0,55] + m[6,1,55] - 50000 c[6,13,-2.0] >= -49998
 R3598: 3 m[6,0,52] + m[6,0,55] + 4 m[6,1,54] + 2 m[6,1,55]
   - 50000 c[6,13,-2.0] >= -49995
 R3599: c[6,13,-1.41504] = 0
 R3600: - 6649 m[6,0,52] + 3 m[6,0,53] - 7 m[6,0,54] + 4 m[6,0,55]
   - 5 m[6,1,52] - m[6,1,53] + 6639 m[6,1,54] - 6648 m[6,1,55]
   - 50000 c[6,13,-1.0] >= -56657
 R3601: 10 m[6,0,52] + 2 m[6,0,53] - 6641 m[6,0,54] - 6649 m[6,0,55]
   + m[6,1,52] + 3 m[6,1,53] - 6647 m[6,1,54] - 3 m[6,1,55]
   - 50000 c[6,13,-1.0] >= -63289
 R3602: 6 m[6,0,52] - m[6,0,53] - 2 m[6,0,54] + 4 m[6,0,55] - 2 m[6,1,53]
   + 5 m[6,1,54] + 4 m[6,1,55] - 50000 c[6,13,-1.0] >= -49999
 R3603: - 17 m[6,0,52] - 4 m[6,0,53] + 5 m[6,0,54] - m[6,0,55]
   + 4 m[6,1,52] + 2 m[6,1,53] + 13 m[6,1,54] - 10 m[6,1,55]
   - 50000 c[6,13,-1.0] >= -50015
 R3604: - 2 m[6,0,52] + 4 m[6,0,53] + 11 m[6,0,54] - 2 m[6,0,55]
   + 9 m[6,1,52] + 9 m[6,1,53] + 14 m[6,1,54] + 14 m[6,1,55]
   - 50000 c[6,13,-1.0] >= -49984
 R3605: 5 m[6,0,52] + 2 m[6,0,53] + 2 m[6,0,54] + 4 m[6,0,55] + 3 m[6,1,53]
   + m[6,1,55] - 50000 c[6,13,-1.0] >= -49995
 R3606: - 3324 m[6,0,52] + m[6,0,53] + 3324 m[6,0,55] + m[6,1,52]
   - 583 m[6,1,53] - 584 m[6,1,54] - 2740 m[6,1,55] - 50000 c[6,13,-1.0]
   >= -53907
 R3607: 15 m[6,0,52] - 2 m[6,0,53] + 3 m[6,0,54] - 10 m[6,0,55] - m[6,1,52]
   - 3 m[6,1,53] - 11 m[6,1,54] - 5 m[6,1,55] - 50000 c[6,13,-1.0]
   >= -50017
 R3608: - 5 m[6,0,52] - 2 m[6,0,53] + m[6,0,54] - 10 m[6,0,55]
   - 3 m[6,1,52] - 3 m[6,1,53] - 11 m[6,1,54] + 15 m[6,1,55]
   - 50000 c[6,13,-1.0] >= -50019
 R3609: c[6,14,0.0] + c[6,14,-3.0] + c[6,14,-2.0] + c[6,14,-1.41504]
   + c[6,14,-1.0] = 1
 R3610: c[6,14,0.0] = 0
 R3611: c[6,14,-3.0] = 0
 R3612: - 5 m[6,0,57] + 4 m[6,0,58] - m[6,1,56] + 4 m[6,1,57] - m[6,1,58]
   + m[6,1,59] - 50000 c[6,14,-2.0] >= -50002
 R3613: 7978 m[6,0,57] + m[6,0,58] + 7979 m[6,1,56] + m[6,1,57]
   - 7979 m[6,1,58] + 7979 m[6,1,59] - 50000 c[6,14,-2.0] >= -50000
 R3614: m[6,0,57] - m[6,1,56] + m[6,1,58] + m[6,1,59] - 50000 c[6,14,-2.0]
   >= -50000
 R3615: - 5 m[6,0,57] - 4 m[6,0,58] + m[6,1,56] - 4 m[6,1,57] + m[6,1,58]
   + m[6,1,59] - 50000 c[6,14,-2.0] >= -50008
 R3616: - m[6,0,57] - m[6,1,56] + m[6,1,58] - m[6,1,59]
   - 50000 c[6,14,-2.0] >= -50002
 R3617: 5 m[6,0,57] + 4 m[6,0,58] + m[6,1,56] - 4 m[6,1,57] + m[6,1,58]
   - m[6,1,59] - 50000 c[6,14,-2.0] >= -50000
 R3618: 5 m[6,0,57] - 4 m[6,0,58] - m[6,1,56] + 4 m[6,1,57] - m[6,1,58]
   - m[6,1,59] - 50000 c[6,14,-2.0] >= -50002
 R3619: - 5 m[6,0,57] + 4 m[6,0,58] + m[6,1,56] + 4 m[6,1,57] - m[6,1,58]
   - m[6,1,59] - 50000 c[6,14,-2.0] >= -50002
 R3620: c[6,14,-1.41504] = 0
 R3621: c[6,14,-1.0] = 0
 R3622: c[6,15,0.0] + c[6,15,-3.0] + c[6,15,-2.0] + c[6,15,-1.41504]
   + c[6,15,-1.0] = 1
 R3623: - m[6,0,60] - m[6,0,61] - m[6,0,62] - m[6,0,63] - m[6,1,60]
   - m[6,1,61] - m[6,1,62] - m[6,1,63] - 50000 c[6,15,0.0] >= -50000
 R3624: c[6,15,-3.0] = 0
 R3625: - m[6,0,60] - m[6,0,63] - m[6,1,62] - m[6,1,63]
   - 50000 c[6,15,-2.0] >= -50003
 R3626: m[6,0,60] + 2 m[6,0,63] + m[6,1,63] - 50000 c[6,15,-2.0] >= -49998
 R3627: 3 m[6,0,60] + m[6,0,63] + 4 m[6,1,62] + 2 m[6,1,63]
   - 50000 c[6,15,-2.0] >= -49995
 R3628: c[6,15,-1.41504] = 0
 R3629: - 6649 m[6,0,60] + 3 m[6,0,61] - 7 m[6,0,62] + 4 m[6,0,63]
   - 5 m[6,1,60] - m[6,1,61] + 6639 m[6,1,62] - 6648 m[6,1,63]
   - 50000 c[6,15,-1.0] >= -56657
 R3630: 10 m[6,0,60] + 2 m[6,0,61] - 6641 m[6,0,62] - 6649 m[6,0,63]
   + m[6,1,60] + 3 m[6,1,61] - 6647 m[6,1,62] - 3 m[6,1,63]
   - 50000 c[6,15,-1.0] >= -63289
 R3631: 6 m[6,0,60] - m[6,0,61] - 2 m[6,0,62] + 4 m[6,0,63] - 2 m[6,1,61]
   + 5 m[6,1,62] + 4 m[6,1,63] - 50000 c[6,15,-1.0] >= -49999
 R3632: - 17 m[6,0,60] - 4 m[6,0,61] + 5 m[6,0,62] - m[6,0,63]
   + 4 m[6,1,60] + 2 m[6,1,61] + 13 m[6,1,62] - 10 m[6,1,63]
   - 50000 c[6,15,-1.0] >= -50015
 R3633: - 2 m[6,0,60] + 4 m[6,0,61] + 11 m[6,0,62] - 2 m[6,0,63]
   + 9 m[6,1,60] + 9 m[6,1,61] + 14 m[6,1,62] + 14 m[6,1,63]
   - 50000 c[6,15,-1.0] >= -49984
 R3634: 5 m[6,0,60] + 2 m[6,0,61] + 2 m[6,0,62] + 4 m[6,0,63] + 3 m[6,1,61]
   + m[6,1,63] - 50000 c[6,15,-1.0] >= -49995
 R3635: - 3324 m[6,0,60] + m[6,0,61] + 3324 m[6,0,63] + m[6,1,60]
   - 583 m[6,1,61] - 584 m[6,1,62] - 2740 m[6,1,63] - 50000 c[6,15,-1.0]
   >= -53907
 R3636: 15 m[6,0,60] - 2 m[6,0,61] + 3 m[6,0,62] - 10 m[6,0,63] - m[6,1,60]
   - 3 m[6,1,61] - 11 m[6,1,62] - 5 m[6,1,63] - 50000 c[6,15,-1.0]
   >= -50017
 R3637: - 5 m[6,0,60] - 2 m[6,0,61] + m[6,0,62] - 10 m[6,0,63]
   - 3 m[6,1,60] - 3 m[6,1,61] - 11 m[6,1,62] + 15 m[6,1,63]
   - 50000 c[6,15,-1.0] >= -50019
 R3638: c[7,0,0.0] + c[7,0,-3.0] + c[7,0,-2.0] + c[7,0,-1.41504]
   + c[7,0,-1.0] = 1
 R3639: - m[7,0,0] - m[7,0,1] - m[7,0,2] - m[7,0,3] - m[7,1,0] - m[7,1,1]
   - m[7,1,2] - m[7,1,3] - 50000 c[7,0,0.0] >= -50000
 R3640: c[7,0,-3.0] = 0
 R3641: - m[7,0,0] - m[7,0,3] - m[7,1,2] - m[7,1,3] - 50000 c[7,0,-2.0]
   >= -50003
 R3642: m[7,0,0] + 2 m[7,0,3] + m[7,1,3] - 50000 c[7,0,-2.0] >= -49998
 R3643: 3 m[7,0,0] + m[7,0,3] + 4 m[7,1,2] + 2 m[7,1,3] - 50000 c[7,0,-2.0]
   >= -49995
 R3644: c[7,0,-1.41504] = 0
 R3645: - 6649 m[7,0,0] + 3 m[7,0,1] - 7 m[7,0,2] + 4 m[7,0,3] - 5 m[7,1,0]
   - m[7,1,1] + 6639 m[7,1,2] - 6648 m[7,1,3] - 50000 c[7,0,-1.0]
   >= -56657
 R3646: 10 m[7,0,0] + 2 m[7,0,1] - 6641 m[7,0,2] - 6649 m[7,0,3] + m[7,1,0]
   + 3 m[7,1,1] - 6647 m[7,1,2] - 3 m[7,1,3] - 50000 c[7,0,-1.0] >= -63289
 R3647: 6 m[7,0,0] - m[7,0,1] - 2 m[7,0,2] + 4 m[7,0,3] - 2 m[7,1,1]
   + 5 m[7,1,2] + 4 m[7,1,3] - 50000 c[7,0,-1.0] >= -49999
 R3648: - 17 m[7,0,0] - 4 m[7,0,1] + 5 m[7,0,2] - m[7,0,3] + 4 m[7,1,0]
   + 2 m[7,1,1] + 13 m[7,1,2] - 10 m[7,1,3] - 50000 c[7,0,-1.0] >= -50015
 R3649: - 2 m[7,0,0] + 4 m[7,0,1] + 11 m[7,0,2] - 2 m[7,0,3] + 9 m[7,1,0]
   + 9 m[7,1,1] + 14 m[7,1,2] + 14 m[7,1,3] - 50000 c[7,0,-1.0] >= -49984
 R3650: 5 m[7,0,0] + 2 m[7,0,1] + 2 m[7,0,2] + 4 m[7,0,3] + 3 m[7,1,1]
   + m[7,1,3] - 50000 c[7,0,-1.0] >= -49995
 R3651: - 3324 m[7,0,0] + m[7,0,1] + 3324 m[7,0,3] + m[7,1,0]
   - 583 m[7,1,1] - 584 m[7,1,2] - 2740 m[7,1,3] - 50000 c[7,0,-1.0]
   >= -53907
 R3652: 15 m[7,0,0] - 2 m[7,0,1] + 3 m[7,0,2] - 10 m[7,0,3] - m[7,1,0]
   - 3 m[7,1,1] - 11 m[7,1,2] - 5 m[7,1,3] - 50000 c[7,0,-1.0] >= -50017
 R3653: - 5 m[7,0,0] - 2 m[7,0,1] + m[7,0,2] - 10 m[7,0,3] - 3 m[7,1,0]
   - 3 m[7,1,1] - 11 m[7,1,2] + 15 m[7,1,3] - 50000 c[7,0,-1.0] >= -50019
 R3654: c[7,1,0.0] + c[7,1,-3.0] + c[7,1,-2.0] + c[7,1,-1.41504]
   + c[7,1,-1.0] = 1
 R3655: - m[7,0,4] - m[7,0,5] - m[7,0,6] - m[7,0,7] - m[7,1,4] - m[7,1,5]
   - m[7,1,6] - m[7,1,7] - 50000 c[7,1,0.0] >= -50000
 R3656: c[7,1,-3.0] = 0
 R3657: - m[7,0,4] - m[7,0,7] - m[7,1,6] - m[7,1,7] - 50000 c[7,1,-2.0]
   >= -50003
 R3658: m[7,0,4] + 2 m[7,0,7] + m[7,1,7] - 50000 c[7,1,-2.0] >= -49998
 R3659: 3 m[7,0,4] + m[7,0,7] + 4 m[7,1,6] + 2 m[7,1,7] - 50000 c[7,1,-2.0]
   >= -49995
 R3660: c[7,1,-1.41504] = 0
 R3661: - 6649 m[7,0,4] + 3 m[7,0,5] - 7 m[7,0,6] + 4 m[7,0,7] - 5 m[7,1,4]
   - m[7,1,5] + 6639 m[7,1,6] - 6648 m[7,1,7] - 50000 c[7,1,-1.0]
   >= -56657
 R3662: 10 m[7,0,4] + 2 m[7,0,5] - 6641 m[7,0,6] - 6649 m[7,0,7] + m[7,1,4]
   + 3 m[7,1,5] - 6647 m[7,1,6] - 3 m[7,1,7] - 50000 c[7,1,-1.0] >= -63289
 R3663: 6 m[7,0,4] - m[7,0,5] - 2 m[7,0,6] + 4 m[7,0,7] - 2 m[7,1,5]
   + 5 m[7,1,6] + 4 m[7,1,7] - 50000 c[7,1,-1.0] >= -49999
 R3664: - 17 m[7,0,4] - 4 m[7,0,5] + 5 m[7,0,6] - m[7,0,7] + 4 m[7,1,4]
   + 2 m[7,1,5] + 13 m[7,1,6] - 10 m[7,1,7] - 50000 c[7,1,-1.0] >= -50015
 R3665: - 2 m[7,0,4] + 4 m[7,0,5] + 11 m[7,0,6] - 2 m[7,0,7] + 9 m[7,1,4]
   + 9 m[7,1,5] + 14 m[7,1,6] + 14 m[7,1,7] - 50000 c[7,1,-1.0] >= -49984
 R3666: 5 m[7,0,4] + 2 m[7,0,5] + 2 m[7,0,6] + 4 m[7,0,7] + 3 m[7,1,5]
   + m[7,1,7] - 50000 c[7,1,-1.0] >= -49995
 R3667: - 3324 m[7,0,4] + m[7,0,5] + 3324 m[7,0,7] + m[7,1,4]
   - 583 m[7,1,5] - 584 m[7,1,6] - 2740 m[7,1,7] - 50000 c[7,1,-1.0]
   >= -53907
 R3668: 15 m[7,0,4] - 2 m[7,0,5] + 3 m[7,0,6] - 10 m[7,0,7] - m[7,1,4]
   - 3 m[7,1,5] - 11 m[7,1,6] - 5 m[7,1,7] - 50000 c[7,1,-1.0] >= -50017
 R3669: - 5 m[7,0,4] - 2 m[7,0,5] + m[7,0,6] - 10 m[7,0,7] - 3 m[7,1,4]
   - 3 m[7,1,5] - 11 m[7,1,6] + 15 m[7,1,7] - 50000 c[7,1,-1.0] >= -50019
 R3670: c[7,2,0.0] + c[7,2,-3.0] + c[7,2,-2.0] + c[7,2,-1.41504]
   + c[7,2,-1.0] = 1
 R3671: - m[7,0,8] - m[7,0,9] - m[7,0,10] - m[7,0,11] - m[7,1,8] - m[7,1,9]
   - m[7,1,10] - m[7,1,11] - 50000 c[7,2,0.0] >= -50000
 R3672: c[7,2,-3.0] = 0
 R3673: - m[7,0,8] - m[7,0,11] - m[7,1,10] - m[7,1,11] - 50000 c[7,2,-2.0]
   >= -50003
 R3674: m[7,0,8] + 2 m[7,0,11] + m[7,1,11] - 50000 c[7,2,-2.0] >= -49998
 R3675: 3 m[7,0,8] + m[7,0,11] + 4 m[7,1,10] + 2 m[7,1,11]
   - 50000 c[7,2,-2.0] >= -49995
 R3676: c[7,2,-1.41504] = 0
 R3677: - 6649 m[7,0,8] + 3 m[7,0,9] - 7 m[7,0,10] + 4 m[7,0,11]
   - 5 m[7,1,8] - m[7,1,9] + 6639 m[7,1,10] - 6648 m[7,1,11]
   - 50000 c[7,2,-1.0] >= -56657
 R3678: 10 m[7,0,8] + 2 m[7,0,9] - 6641 m[7,0,10] - 6649 m[7,0,11]
   + m[7,1,8] + 3 m[7,1,9] - 6647 m[7,1,10] - 3 m[7,1,11]
   - 50000 c[7,2,-1.0] >= -63289
 R3679: 6 m[7,0,8] - m[7,0,9] - 2 m[7,0,10] + 4 m[7,0,11] - 2 m[7,1,9]
   + 5 m[7,1,10] + 4 m[7,1,11] - 50000 c[7,2,-1.0] >= -49999
 R3680: - 17 m[7,0,8] - 4 m[7,0,9] + 5 m[7,0,10] - m[7,0,11] + 4 m[7,1,8]
   + 2 m[7,1,9] + 13 m[7,1,10] - 10 m[7,1,11] - 50000 c[7,2,-1.0]
   >= -50015
 R3681: - 2 m[7,0,8] + 4 m[7,0,9] + 11 m[7,0,10] - 2 m[7,0,11] + 9 m[7,1,8]
   + 9 m[7,1,9] + 14 m[7,1,10] + 14 m[7,1,11] - 50000 c[7,2,-1.0]
   >= -49984
 R3682: 5 m[7,0,8] + 2 m[7,0,9] + 2 m[7,0,10] + 4 m[7,0,11] + 3 m[7,1,9]
   + m[7,1,11] - 50000 c[7,2,-1.0] >= -49995
 R3683: - 3324 m[7,0,8] + m[7,0,9] + 3324 m[7,0,11] + m[7,1,8]
   - 583 m[7,1,9] - 584 m[7,1,10] - 2740 m[7,1,11] - 50000 c[7,2,-1.0]
   >= -53907
 R3684: 15 m[7,0,8] - 2 m[7,0,9] + 3 m[7,0,10] - 10 m[7,0,11] - m[7,1,8]
   - 3 m[7,1,9] - 11 m[7,1,10] - 5 m[7,1,11] - 50000 c[7,2,-1.0] >= -50017
 R3685: - 5 m[7,0,8] - 2 m[7,0,9] + m[7,0,10] - 10 m[7,0,11] - 3 m[7,1,8]
   - 3 m[7,1,9] - 11 m[7,1,10] + 15 m[7,1,11] - 50000 c[7,2,-1.0]
   >= -50019
 R3686: c[7,3,0.0] + c[7,3,-3.0] + c[7,3,-2.0] + c[7,3,-1.41504]
   + c[7,3,-1.0] = 1
 R3687: - m[7,0,12] - m[7,0,13] - m[7,0,14] - m[7,0,15] - m[7,1,12]
   - m[7,1,13] - m[7,1,14] - m[7,1,15] - 50000 c[7,3,0.0] >= -50000
 R3688: c[7,3,-3.0] = 0
 R3689: - m[7,0,12] - m[7,0,15] - m[7,1,14] - m[7,1,15] - 50000 c[7,3,-2.0]
   >= -50003
 R3690: m[7,0,12] + 2 m[7,0,15] + m[7,1,15] - 50000 c[7,3,-2.0] >= -49998
 R3691: 3 m[7,0,12] + m[7,0,15] + 4 m[7,1,14] + 2 m[7,1,15]
   - 50000 c[7,3,-2.0] >= -49995
 R3692: c[7,3,-1.41504] = 0
 R3693: - 6649 m[7,0,12] + 3 m[7,0,13] - 7 m[7,0,14] + 4 m[7,0,15]
   - 5 m[7,1,12] - m[7,1,13] + 6639 m[7,1,14] - 6648 m[7,1,15]
   - 50000 c[7,3,-1.0] >= -56657
 R3694: 10 m[7,0,12] + 2 m[7,0,13] - 6641 m[7,0,14] - 6649 m[7,0,15]
   + m[7,1,12] + 3 m[7,1,13] - 6647 m[7,1,14] - 3 m[7,1,15]
   - 50000 c[7,3,-1.0] >= -63289
 R3695: 6 m[7,0,12] - m[7,0,13] - 2 m[7,0,14] + 4 m[7,0,15] - 2 m[7,1,13]
   + 5 m[7,1,14] + 4 m[7,1,15] - 50000 c[7,3,-1.0] >= -49999
 R3696: - 17 m[7,0,12] - 4 m[7,0,13] + 5 m[7,0,14] - m[7,0,15]
   + 4 m[7,1,12] + 2 m[7,1,13] + 13 m[7,1,14] - 10 m[7,1,15]
   - 50000 c[7,3,-1.0] >= -50015
 R3697: - 2 m[7,0,12] + 4 m[7,0,13] + 11 m[7,0,14] - 2 m[7,0,15]
   + 9 m[7,1,12] + 9 m[7,1,13] + 14 m[7,1,14] + 14 m[7,1,15]
   - 50000 c[7,3,-1.0] >= -49984
 R3698: 5 m[7,0,12] + 2 m[7,0,13] + 2 m[7,0,14] + 4 m[7,0,15] + 3 m[7,1,13]
   + m[7,1,15] - 50000 c[7,3,-1.0] >= -49995
 R3699: - 3324 m[7,0,12] + m[7,0,13] + 3324 m[7,0,15] + m[7,1,12]
   - 583 m[7,1,13] - 584 m[7,1,14] - 2740 m[7,1,15] - 50000 c[7,3,-1.0]
   >= -53907
 R3700: 15 m[7,0,12] - 2 m[7,0,13] + 3 m[7,0,14] - 10 m[7,0,15] - m[7,1,12]
   - 3 m[7,1,13] - 11 m[7,1,14] - 5 m[7,1,15] - 50000 c[7,3,-1.0]
   >= -50017
 R3701: - 5 m[7,0,12] - 2 m[7,0,13] + m[7,0,14] - 10 m[7,0,15]
   - 3 m[7,1,12] - 3 m[7,1,13] - 11 m[7,1,14] + 15 m[7,1,15]
   - 50000 c[7,3,-1.0] >= -50019
 R3702: c[7,4,0.0] + c[7,4,-3.0] + c[7,4,-2.0] + c[7,4,-1.41504]
   + c[7,4,-1.0] = 1
 R3703: c[7,4,0.0] = 0
 R3704: - m[7,0,17] - m[7,1,17] - m[7,1,18] - 50000 c[7,4,-3.0] >= -50002
 R3705: m[7,0,17] + m[7,1,17] - m[7,1,18] - 50000 c[7,4,-3.0] >= -50000
 R3706: m[7,0,17] - m[7,1,17] + m[7,1,18] - 50000 c[7,4,-3.0] >= -50000
 R3707: - m[7,0,17] + m[7,1,17] + m[7,1,18] - 50000 c[7,4,-3.0] >= -50000
 R3708: c[7,4,-2.0] = 0
 R3709: c[7,4,-1.41504] = 0
 R3710: c[7,4,-1.0] = 0
 R3711: c[7,5,0.0] + c[7,5,-3.0] + c[7,5,-2.0] + c[7,5,-1.41504]
   + c[7,5,-1.0] = 1
 R3712: - m[7,0,20] - m[7,0,21] - m[7,0,22] - m[7,0,23] - m[7,1,20]
   - m[7,1,21] - m[7,1,22] - m[7,1,23] - 50000 c[7,5,0.0] >= -50000
 R3713: c[7,5,-3.0] = 0
 R3714: - m[7,0,20] - m[7,0,23] - m[7,1,22] - m[7,1,23] - 50000 c[7,5,-2.0]
   >= -50003
 R3715: m[7,0,20] + 2 m[7,0,23] + m[7,1,23] - 50000 c[7,5,-2.0] >= -49998
 R3716: 3 m[7,0,20] + m[7,0,23] + 4 m[7,1,22] + 2 m[7,1,23]
   - 50000 c[7,5,-2.0] >= -49995
 R3717: c[7,5,-1.41504] = 0
 R3718: - 6649 m[7,0,20] + 3 m[7,0,21] - 7 m[7,0,22] + 4 m[7,0,23]
   - 5 m[7,1,20] - m[7,1,21] + 6639 m[7,1,22] - 6648 m[7,1,23]
   - 50000 c[7,5,-1.0] >= -56657
 R3719: 10 m[7,0,20] + 2 m[7,0,21] - 6641 m[7,0,22] - 6649 m[7,0,23]
   + m[7,1,20] + 3 m[7,1,21] - 6647 m[7,1,22] - 3 m[7,1,23]
   - 50000 c[7,5,-1.0] >= -63289
 R3720: 6 m[7,0,20] - m[7,0,21] - 2 m[7,0,22] + 4 m[7,0,23] - 2 m[7,1,21]
   + 5 m[7,1,22] + 4 m[7,1,23] - 50000 c[7,5,-1.0] >= -49999
 R3721: - 17 m[7,0,20] - 4 m[7,0,21] + 5 m[7,0,22] - m[7,0,23]
   + 4 m[7,1,20] + 2 m[7,1,21] + 13 m[7,1,22] - 10 m[7,1,23]
   - 50000 c[7,5,-1.0] >= -50015
 R3722: - 2 m[7,0,20] + 4 m[7,0,21] + 11 m[7,0,22] - 2 m[7,0,23]
   + 9 m[7,1,20] + 9 m[7,1,21] + 14 m[7,1,22] + 14 m[7,1,23]
   - 50000 c[7,5,-1.0] >= -49984
 R3723: 5 m[7,0,20] + 2 m[7,0,21] + 2 m[7,0,22] + 4 m[7,0,23] + 3 m[7,1,21]
   + m[7,1,23] - 50000 c[7,5,-1.0] >= -49995
 R3724: - 3324 m[7,0,20] + m[7,0,21] + 3324 m[7,0,23] + m[7,1,20]
   - 583 m[7,1,21] - 584 m[7,1,22] - 2740 m[7,1,23] - 50000 c[7,5,-1.0]
   >= -53907
 R3725: 15 m[7,0,20] - 2 m[7,0,21] + 3 m[7,0,22] - 10 m[7,0,23] - m[7,1,20]
   - 3 m[7,1,21] - 11 m[7,1,22] - 5 m[7,1,23] - 50000 c[7,5,-1.0]
   >= -50017
 R3726: - 5 m[7,0,20] - 2 m[7,0,21] + m[7,0,22] - 10 m[7,0,23]
   - 3 m[7,1,20] - 3 m[7,1,21] - 11 m[7,1,22] + 15 m[7,1,23]
   - 50000 c[7,5,-1.0] >= -50019
 R3727: c[7,6,0.0] + c[7,6,-3.0] + c[7,6,-2.0] + c[7,6,-1.41504]
   + c[7,6,-1.0] = 1
 R3728: - m[7,0,24] - m[7,0,25] - m[7,0,26] - m[7,0,27] - m[7,1,24]
   - m[7,1,25] - m[7,1,26] - m[7,1,27] - 50000 c[7,6,0.0] >= -50000
 R3729: c[7,6,-3.0] = 0
 R3730: - m[7,0,24] - m[7,0,27] - m[7,1,26] - m[7,1,27] - 50000 c[7,6,-2.0]
   >= -50003
 R3731: m[7,0,24] + 2 m[7,0,27] + m[7,1,27] - 50000 c[7,6,-2.0] >= -49998
 R3732: 3 m[7,0,24] + m[7,0,27] + 4 m[7,1,26] + 2 m[7,1,27]
   - 50000 c[7,6,-2.0] >= -49995
 R3733: c[7,6,-1.41504] = 0
 R3734: - 6649 m[7,0,24] + 3 m[7,0,25] - 7 m[7,0,26] + 4 m[7,0,27]
   - 5 m[7,1,24] - m[7,1,25] + 6639 m[7,1,26] - 6648 m[7,1,27]
   - 50000 c[7,6,-1.0] >= -56657
 R3735: 10 m[7,0,24] + 2 m[7,0,25] - 6641 m[7,0,26] - 6649 m[7,0,27]
   + m[7,1,24] + 3 m[7,1,25] - 6647 m[7,1,26] - 3 m[7,1,27]
   - 50000 c[7,6,-1.0] >= -63289
 R3736: 6 m[7,0,24] - m[7,0,25] - 2 m[7,0,26] + 4 m[7,0,27] - 2 m[7,1,25]
   + 5 m[7,1,26] + 4 m[7,1,27] - 50000 c[7,6,-1.0] >= -49999
 R3737: - 17 m[7,0,24] - 4 m[7,0,25] + 5 m[7,0,26] - m[7,0,27]
   + 4 m[7,1,24] + 2 m[7,1,25] + 13 m[7,1,26] - 10 m[7,1,27]
   - 50000 c[7,6,-1.0] >= -50015
 R3738: - 2 m[7,0,24] + 4 m[7,0,25] + 11 m[7,0,26] - 2 m[7,0,27]
   + 9 m[7,1,24] + 9 m[7,1,25] + 14 m[7,1,26] + 14 m[7,1,27]
   - 50000 c[7,6,-1.0] >= -49984
 R3739: 5 m[7,0,24] + 2 m[7,0,25] + 2 m[7,0,26] + 4 m[7,0,27] + 3 m[7,1,25]
   + m[7,1,27] - 50000 c[7,6,-1.0] >= -49995
 R3740: - 3324 m[7,0,24] + m[7,0,25] + 3324 m[7,0,27] + m[7,1,24]
   - 583 m[7,1,25] - 584 m[7,1,26] - 2740 m[7,1,27] - 50000 c[7,6,-1.0]
   >= -53907
 R3741: 15 m[7,0,24] - 2 m[7,0,25] + 3 m[7,0,26] - 10 m[7,0,27] - m[7,1,24]
   - 3 m[7,1,25] - 11 m[7,1,26] - 5 m[7,1,27] - 50000 c[7,6,-1.0]
   >= -50017
 R3742: - 5 m[7,0,24] - 2 m[7,0,25] + m[7,0,26] - 10 m[7,0,27]
   - 3 m[7,1,24] - 3 m[7,1,25] - 11 m[7,1,26] + 15 m[7,1,27]
   - 50000 c[7,6,-1.0] >= -50019
 R3743: c[7,7,0.0] + c[7,7,-3.0] + c[7,7,-2.0] + c[7,7,-1.41504]
   + c[7,7,-1.0] = 1
 R3744: - m[7,0,28] - m[7,0,29] - m[7,0,30] - m[7,0,31] - m[7,1,28]
   - m[7,1,29] - m[7,1,30] - m[7,1,31] - 50000 c[7,7,0.0] >= -50000
 R3745: c[7,7,-3.0] = 0
 R3746: - m[7,0,28] - m[7,0,31] - m[7,1,30] - m[7,1,31] - 50000 c[7,7,-2.0]
   >= -50003
 R3747: m[7,0,28] + 2 m[7,0,31] + m[7,1,31] - 50000 c[7,7,-2.0] >= -49998
 R3748: 3 m[7,0,28] + m[7,0,31] + 4 m[7,1,30] + 2 m[7,1,31]
   - 50000 c[7,7,-2.0] >= -49995
 R3749: c[7,7,-1.41504] = 0
 R3750: - 6649 m[7,0,28] + 3 m[7,0,29] - 7 m[7,0,30] + 4 m[7,0,31]
   - 5 m[7,1,28] - m[7,1,29] + 6639 m[7,1,30] - 6648 m[7,1,31]
   - 50000 c[7,7,-1.0] >= -56657
 R3751: 10 m[7,0,28] + 2 m[7,0,29] - 6641 m[7,0,30] - 6649 m[7,0,31]
   + m[7,1,28] + 3 m[7,1,29] - 6647 m[7,1,30] - 3 m[7,1,31]
   - 50000 c[7,7,-1.0] >= -63289
 R3752: 6 m[7,0,28] - m[7,0,29] - 2 m[7,0,30] + 4 m[7,0,31] - 2 m[7,1,29]
   + 5 m[7,1,30] + 4 m[7,1,31] - 50000 c[7,7,-1.0] >= -49999
 R3753: - 17 m[7,0,28] - 4 m[7,0,29] + 5 m[7,0,30] - m[7,0,31]
   + 4 m[7,1,28] + 2 m[7,1,29] + 13 m[7,1,30] - 10 m[7,1,31]
   - 50000 c[7,7,-1.0] >= -50015
 R3754: - 2 m[7,0,28] + 4 m[7,0,29] + 11 m[7,0,30] - 2 m[7,0,31]
   + 9 m[7,1,28] + 9 m[7,1,29] + 14 m[7,1,30] + 14 m[7,1,31]
   - 50000 c[7,7,-1.0] >= -49984
 R3755: 5 m[7,0,28] + 2 m[7,0,29] + 2 m[7,0,30] + 4 m[7,0,31] + 3 m[7,1,29]
   + m[7,1,31] - 50000 c[7,7,-1.0] >= -49995
 R3756: - 3324 m[7,0,28] + m[7,0,29] + 3324 m[7,0,31] + m[7,1,28]
   - 583 m[7,1,29] - 584 m[7,1,30] - 2740 m[7,1,31] - 50000 c[7,7,-1.0]
   >= -53907
 R3757: 15 m[7,0,28] - 2 m[7,0,29] + 3 m[7,0,30] - 10 m[7,0,31] - m[7,1,28]
   - 3 m[7,1,29] - 11 m[7,1,30] - 5 m[7,1,31] - 50000 c[7,7,-1.0]
   >= -50017
 R3758: - 5 m[7,0,28] - 2 m[7,0,29] + m[7,0,30] - 10 m[7,0,31]
   - 3 m[7,1,28] - 3 m[7,1,29] - 11 m[7,1,30] + 15 m[7,1,31]
   - 50000 c[7,7,-1.0] >= -50019
 R3759: c[7,8,0.0] + c[7,8,-3.0] + c[7,8,-2.0] + c[7,8,-1.41504]
   + c[7,8,-1.0] = 1
 R3760: - m[7,0,32] - m[7,0,33] - m[7,0,34] - m[7,0,35] - m[7,1,32]
   - m[7,1,33] - m[7,1,34] - m[7,1,35] - 50000 c[7,8,0.0] >= -50000
 R3761: c[7,8,-3.0] = 0
 R3762: - m[7,0,32] - m[7,0,35] - m[7,1,34] - m[7,1,35] - 50000 c[7,8,-2.0]
   >= -50003
 R3763: m[7,0,32] + 2 m[7,0,35] + m[7,1,35] - 50000 c[7,8,-2.0] >= -49998
 R3764: 3 m[7,0,32] + m[7,0,35] + 4 m[7,1,34] + 2 m[7,1,35]
   - 50000 c[7,8,-2.0] >= -49995
 R3765: c[7,8,-1.41504] = 0
 R3766: - 6649 m[7,0,32] + 3 m[7,0,33] - 7 m[7,0,34] + 4 m[7,0,35]
   - 5 m[7,1,32] - m[7,1,33] + 6639 m[7,1,34] - 6648 m[7,1,35]
   - 50000 c[7,8,-1.0] >= -56657
 R3767: 10 m[7,0,32] + 2 m[7,0,33] - 6641 m[7,0,34] - 6649 m[7,0,35]
   + m[7,1,32] + 3 m[7,1,33] - 6647 m[7,1,34] - 3 m[7,1,35]
   - 50000 c[7,8,-1.0] >= -63289
 R3768: 6 m[7,0,32] - m[7,0,33] - 2 m[7,0,34] + 4 m[7,0,35] - 2 m[7,1,33]
   + 5 m[7,1,34] + 4 m[7,1,35] - 50000 c[7,8,-1.0] >= -49999
 R3769: - 17 m[7,0,32] - 4 m[7,0,33] + 5 m[7,0,34] - m[7,0,35]
   + 4 m[7,1,32] + 2 m[7,1,33] + 13 m[7,1,34] - 10 m[7,1,35]
   - 50000 c[7,8,-1.0] >= -50015
 R3770: - 2 m[7,0,32] + 4 m[7,0,33] + 11 m[7,0,34] - 2 m[7,0,35]
   + 9 m[7,1,32] + 9 m[7,1,33] + 14 m[7,1,34] + 14 m[7,1,35]
   - 50000 c[7,8,-1.0] >= -49984
 R3771: 5 m[7,0,32] + 2 m[7,0,33] + 2 m[7,0,34] + 4 m[7,0,35] + 3 m[7,1,33]
   + m[7,1,35] - 50000 c[7,8,-1.0] >= -49995
 R3772: - 3324 m[7,0,32] + m[7,0,33] + 3324 m[7,0,35] + m[7,1,32]
   - 583 m[7,1,33] - 584 m[7,1,34] - 2740 m[7,1,35] - 50000 c[7,8,-1.0]
   >= -53907
 R3773: 15 m[7,0,32] - 2 m[7,0,33] + 3 m[7,0,34] - 10 m[7,0,35] - m[7,1,32]
   - 3 m[7,1,33] - 11 m[7,1,34] - 5 m[7,1,35] - 50000 c[7,8,-1.0]
   >= -50017
 R3774: - 5 m[7,0,32] - 2 m[7,0,33] + m[7,0,34] - 10 m[7,0,35]
   - 3 m[7,1,32] - 3 m[7,1,33] - 11 m[7,1,34] + 15 m[7,1,35]
   - 50000 c[7,8,-1.0] >= -50019
 R3775: c[7,9,0.0] + c[7,9,-3.0] + c[7,9,-2.0] + c[7,9,-1.41504]
   + c[7,9,-1.0] = 1
 R3776: - m[7,0,36] - m[7,0,37] - m[7,0,38] - m[7,0,39] - m[7,1,36]
   - m[7,1,37] - m[7,1,38] - m[7,1,39] - 50000 c[7,9,0.0] >= -50000
 R3777: c[7,9,-3.0] = 0
 R3778: - m[7,0,36] - m[7,0,39] - m[7,1,38] - m[7,1,39] - 50000 c[7,9,-2.0]
   >= -50003
 R3779: m[7,0,36] + 2 m[7,0,39] + m[7,1,39] - 50000 c[7,9,-2.0] >= -49998
 R3780: 3 m[7,0,36] + m[7,0,39] + 4 m[7,1,38] + 2 m[7,1,39]
   - 50000 c[7,9,-2.0] >= -49995
 R3781: c[7,9,-1.41504] = 0
 R3782: - 6649 m[7,0,36] + 3 m[7,0,37] - 7 m[7,0,38] + 4 m[7,0,39]
   - 5 m[7,1,36] - m[7,1,37] + 6639 m[7,1,38] - 6648 m[7,1,39]
   - 50000 c[7,9,-1.0] >= -56657
 R3783: 10 m[7,0,36] + 2 m[7,0,37] - 6641 m[7,0,38] - 6649 m[7,0,39]
   + m[7,1,36] + 3 m[7,1,37] - 6647 m[7,1,38] - 3 m[7,1,39]
   - 50000 c[7,9,-1.0] >= -63289
 R3784: 6 m[7,0,36] - m[7,0,37] - 2 m[7,0,38] + 4 m[7,0,39] - 2 m[7,1,37]
   + 5 m[7,1,38] + 4 m[7,1,39] - 50000 c[7,9,-1.0] >= -49999
 R3785: - 17 m[7,0,36] - 4 m[7,0,37] + 5 m[7,0,38] - m[7,0,39]
   + 4 m[7,1,36] + 2 m[7,1,37] + 13 m[7,1,38] - 10 m[7,1,39]
   - 50000 c[7,9,-1.0] >= -50015
 R3786: - 2 m[7,0,36] + 4 m[7,0,37] + 11 m[7,0,38] - 2 m[7,0,39]
   + 9 m[7,1,36] + 9 m[7,1,37] + 14 m[7,1,38] + 14 m[7,1,39]
   - 50000 c[7,9,-1.0] >= -49984
 R3787: 5 m[7,0,36] + 2 m[7,0,37] + 2 m[7,0,38] + 4 m[7,0,39] + 3 m[7,1,37]
   + m[7,1,39] - 50000 c[7,9,-1.0] >= -49995
 R3788: - 3324 m[7,0,36] + m[7,0,37] + 3324 m[7,0,39] + m[7,1,36]
   - 583 m[7,1,37] - 584 m[7,1,38] - 2740 m[7,1,39] - 50000 c[7,9,-1.0]
   >= -53907
 R3789: 15 m[7,0,36] - 2 m[7,0,37] + 3 m[7,0,38] - 10 m[7,0,39] - m[7,1,36]
   - 3 m[7,1,37] - 11 m[7,1,38] - 5 m[7,1,39] - 50000 c[7,9,-1.0]
   >= -50017
 R3790: - 5 m[7,0,36] - 2 m[7,0,37] + m[7,0,38] - 10 m[7,0,39]
   - 3 m[7,1,36] - 3 m[7,1,37] - 11 m[7,1,38] + 15 m[7,1,39]
   - 50000 c[7,9,-1.0] >= -50019
 R3791: c[7,10,0.0] + c[7,10,-3.0] + c[7,10,-2.0] + c[7,10,-1.41504]
   + c[7,10,-1.0] = 1
 R3792: - m[7,0,40] - m[7,0,41] - m[7,0,42] - m[7,0,43] - m[7,1,40]
   - m[7,1,41] - m[7,1,42] - m[7,1,43] - 50000 c[7,10,0.0] >= -50000
 R3793: c[7,10,-3.0] = 0
 R3794: - m[7,0,40] - m[7,0,43] - m[7,1,42] - m[7,1,43]
   - 50000 c[7,10,-2.0] >= -50003
 R3795: m[7,0,40] + 2 m[7,0,43] + m[7,1,43] - 50000 c[7,10,-2.0] >= -49998
 R3796: 3 m[7,0,40] + m[7,0,43] + 4 m[7,1,42] + 2 m[7,1,43]
   - 50000 c[7,10,-2.0] >= -49995
 R3797: c[7,10,-1.41504] = 0
 R3798: - 6649 m[7,0,40] + 3 m[7,0,41] - 7 m[7,0,42] + 4 m[7,0,43]
   - 5 m[7,1,40] - m[7,1,41] + 6639 m[7,1,42] - 6648 m[7,1,43]
   - 50000 c[7,10,-1.0] >= -56657
 R3799: 10 m[7,0,40] + 2 m[7,0,41] - 6641 m[7,0,42] - 6649 m[7,0,43]
   + m[7,1,40] + 3 m[7,1,41] - 6647 m[7,1,42] - 3 m[7,1,43]
   - 50000 c[7,10,-1.0] >= -63289
 R3800: 6 m[7,0,40] - m[7,0,41] - 2 m[7,0,42] + 4 m[7,0,43] - 2 m[7,1,41]
   + 5 m[7,1,42] + 4 m[7,1,43] - 50000 c[7,10,-1.0] >= -49999
 R3801: - 17 m[7,0,40] - 4 m[7,0,41] + 5 m[7,0,42] - m[7,0,43]
   + 4 m[7,1,40] + 2 m[7,1,41] + 13 m[7,1,42] - 10 m[7,1,43]
   - 50000 c[7,10,-1.0] >= -50015
 R3802: - 2 m[7,0,40] + 4 m[7,0,41] + 11 m[7,0,42] - 2 m[7,0,43]
   + 9 m[7,1,40] + 9 m[7,1,41] + 14 m[7,1,42] + 14 m[7,1,43]
   - 50000 c[7,10,-1.0] >= -49984
 R3803: 5 m[7,0,40] + 2 m[7,0,41] + 2 m[7,0,42] + 4 m[7,0,43] + 3 m[7,1,41]
   + m[7,1,43] - 50000 c[7,10,-1.0] >= -49995
 R3804: - 3324 m[7,0,40] + m[7,0,41] + 3324 m[7,0,43] + m[7,1,40]
   - 583 m[7,1,41] - 584 m[7,1,42] - 2740 m[7,1,43] - 50000 c[7,10,-1.0]
   >= -53907
 R3805: 15 m[7,0,40] - 2 m[7,0,41] + 3 m[7,0,42] - 10 m[7,0,43] - m[7,1,40]
   - 3 m[7,1,41] - 11 m[7,1,42] - 5 m[7,1,43] - 50000 c[7,10,-1.0]
   >= -50017
 R3806: - 5 m[7,0,40] - 2 m[7,0,41] + m[7,0,42] - 10 m[7,0,43]
   - 3 m[7,1,40] - 3 m[7,1,41] - 11 m[7,1,42] + 15 m[7,1,43]
   - 50000 c[7,10,-1.0] >= -50019
 R3807: c[7,11,0.0] + c[7,11,-3.0] + c[7,11,-2.0] + c[7,11,-1.41504]
   + c[7,11,-1.0] = 1
 R3808: - m[7,0,44] - m[7,0,45] - m[7,0,46] - m[7,0,47] - m[7,1,44]
   - m[7,1,45] - m[7,1,46] - m[7,1,47] - 50000 c[7,11,0.0] >= -50000
 R3809: c[7,11,-3.0] = 0
 R3810: - m[7,0,44] - m[7,0,47] - m[7,1,46] - m[7,1,47]
   - 50000 c[7,11,-2.0] >= -50003
 R3811: m[7,0,44] + 2 m[7,0,47] + m[7,1,47] - 50000 c[7,11,-2.0] >= -49998
 R3812: 3 m[7,0,44] + m[7,0,47] + 4 m[7,1,46] + 2 m[7,1,47]
   - 50000 c[7,11,-2.0] >= -49995
 R3813: c[7,11,-1.41504] = 0
 R3814: - 6649 m[7,0,44] + 3 m[7,0,45] - 7 m[7,0,46] + 4 m[7,0,47]
   - 5 m[7,1,44] - m[7,1,45] + 6639 m[7,1,46] - 6648 m[7,1,47]
   - 50000 c[7,11,-1.0] >= -56657
 R3815: 10 m[7,0,44] + 2 m[7,0,45] - 6641 m[7,0,46] - 6649 m[7,0,47]
   + m[7,1,44] + 3 m[7,1,45] - 6647 m[7,1,46] - 3 m[7,1,47]
   - 50000 c[7,11,-1.0] >= -63289
 R3816: 6 m[7,0,44] - m[7,0,45] - 2 m[7,0,46] + 4 m[7,0,47] - 2 m[7,1,45]
   + 5 m[7,1,46] + 4 m[7,1,47] - 50000 c[7,11,-1.0] >= -49999
 R3817: - 17 m[7,0,44] - 4 m[7,0,45] + 5 m[7,0,46] - m[7,0,47]
   + 4 m[7,1,44] + 2 m[7,1,45] + 13 m[7,1,46] - 10 m[7,1,47]
   - 50000 c[7,11,-1.0] >= -50015
 R3818: - 2 m[7,0,44] + 4 m[7,0,45] + 11 m[7,0,46] - 2 m[7,0,47]
   + 9 m[7,1,44] + 9 m[7,1,45] + 14 m[7,1,46] + 14 m[7,1,47]
   - 50000 c[7,11,-1.0] >= -49984
 R3819: 5 m[7,0,44] + 2 m[7,0,45] + 2 m[7,0,46] + 4 m[7,0,47] + 3 m[7,1,45]
   + m[7,1,47] - 50000 c[7,11,-1.0] >= -49995
 R3820: - 3324 m[7,0,44] + m[7,0,45] + 3324 m[7,0,47] + m[7,1,44]
   - 583 m[7,1,45] - 584 m[7,1,46] - 2740 m[7,1,47] - 50000 c[7,11,-1.0]
   >= -53907
 R3821: 15 m[7,0,44] - 2 m[7,0,45] + 3 m[7,0,46] - 10 m[7,0,47] - m[7,1,44]
   - 3 m[7,1,45] - 11 m[7,1,46] - 5 m[7,1,47] - 50000 c[7,11,-1.0]
   >= -50017
 R3822: - 5 m[7,0,44] - 2 m[7,0,45] + m[7,0,46] - 10 m[7,0,47]
   - 3 m[7,1,44] - 3 m[7,1,45] - 11 m[7,1,46] + 15 m[7,1,47]
   - 50000 c[7,11,-1.0] >= -50019
 R3823: c[7,12,0.0] + c[7,12,-3.0] + c[7,12,-2.0] + c[7,12,-1.41504]
   + c[7,12,-1.0] = 1
 R3824: - m[7,0,48] - m[7,0,49] - m[7,0,50] - m[7,0,51] - m[7,1,48]
   - m[7,1,49] - m[7,1,50] - m[7,1,51] - 50000 c[7,12,0.0] >= -50000
 R3825: c[7,12,-3.0] = 0
 R3826: - m[7,0,48] - m[7,0,51] - m[7,1,50] - m[7,1,51]
   - 50000 c[7,12,-2.0] >= -50003
 R3827: m[7,0,48] + 2 m[7,0,51] + m[7,1,51] - 50000 c[7,12,-2.0] >= -49998
 R3828: 3 m[7,0,48] + m[7,0,51] + 4 m[7,1,50] + 2 m[7,1,51]
   - 50000 c[7,12,-2.0] >= -49995
 R3829: c[7,12,-1.41504] = 0
 R3830: - 6649 m[7,0,48] + 3 m[7,0,49] - 7 m[7,0,50] + 4 m[7,0,51]
   - 5 m[7,1,48] - m[7,1,49] + 6639 m[7,1,50] - 6648 m[7,1,51]
   - 50000 c[7,12,-1.0] >= -56657
 R3831: 10 m[7,0,48] + 2 m[7,0,49] - 6641 m[7,0,50] - 6649 m[7,0,51]
   + m[7,1,48] + 3 m[7,1,49] - 6647 m[7,1,50] - 3 m[7,1,51]
   - 50000 c[7,12,-1.0] >= -63289
 R3832: 6 m[7,0,48] - m[7,0,49] - 2 m[7,0,50] + 4 m[7,0,51] - 2 m[7,1,49]
   + 5 m[7,1,50] + 4 m[7,1,51] - 50000 c[7,12,-1.0] >= -49999
 R3833: - 17 m[7,0,48] - 4 m[7,0,49] + 5 m[7,0,50] - m[7,0,51]
   + 4 m[7,1,48] + 2 m[7,1,49] + 13 m[7,1,50] - 10 m[7,1,51]
   - 50000 c[7,12,-1.0] >= -50015
 R3834: - 2 m[7,0,48] + 4 m[7,0,49] + 11 m[7,0,50] - 2 m[7,0,51]
   + 9 m[7,1,48] + 9 m[7,1,49] + 14 m[7,1,50] + 14 m[7,1,51]
   - 50000 c[7,12,-1.0] >= -49984
 R3835: 5 m[7,0,48] + 2 m[7,0,49] + 2 m[7,0,50] + 4 m[7,0,51] + 3 m[7,1,49]
   + m[7,1,51] - 50000 c[7,12,-1.0] >= -49995
 R3836: - 3324 m[7,0,48] + m[7,0,49] + 3324 m[7,0,51] + m[7,1,48]
   - 583 m[7,1,49] - 584 m[7,1,50] - 2740 m[7,1,51] - 50000 c[7,12,-1.0]
   >= -53907
 R3837: 15 m[7,0,48] - 2 m[7,0,49] + 3 m[7,0,50] - 10 m[7,0,51] - m[7,1,48]
   - 3 m[7,1,49] - 11 m[7,1,50] - 5 m[7,1,51] - 50000 c[7,12,-1.0]
   >= -50017
 R3838: - 5 m[7,0,48] - 2 m[7,0,49] + m[7,0,50] - 10 m[7,0,51]
   - 3 m[7,1,48] - 3 m[7,1,49] - 11 m[7,1,50] + 15 m[7,1,51]
   - 50000 c[7,12,-1.0] >= -50019
 R3839: c[7,13,0.0] + c[7,13,-3.0] + c[7,13,-2.0] + c[7,13,-1.41504]
   + c[7,13,-1.0] = 1
 R3840: - m[7,0,52] - m[7,0,53] - m[7,0,54] - m[7,0,55] - m[7,1,52]
   - m[7,1,53] - m[7,1,54] - m[7,1,55] - 50000 c[7,13,0.0] >= -50000
 R3841: c[7,13,-3.0] = 0
 R3842: - m[7,0,52] - m[7,0,55] - m[7,1,54] - m[7,1,55]
   - 50000 c[7,13,-2.0] >= -50003
 R3843: m[7,0,52] + 2 m[7,0,55] + m[7,1,55] - 50000 c[7,13,-2.0] >= -49998
 R3844: 3 m[7,0,52] + m[7,0,55] + 4 m[7,1,54] + 2 m[7,1,55]
   - 50000 c[7,13,-2.0] >= -49995
 R3845: c[7,13,-1.41504] = 0
 R3846: - 6649 m[7,0,52] + 3 m[7,0,53] - 7 m[7,0,54] + 4 m[7,0,55]
   - 5 m[7,1,52] - m[7,1,53] + 6639 m[7,1,54] - 6648 m[7,1,55]
   - 50000 c[7,13,-1.0] >= -56657
 R3847: 10 m[7,0,52] + 2 m[7,0,53] - 6641 m[7,0,54] - 6649 m[7,0,55]
   + m[7,1,52] + 3 m[7,1,53] - 6647 m[7,1,54] - 3 m[7,1,55]
   - 50000 c[7,13,-1.0] >= -63289
 R3848: 6 m[7,0,52] - m[7,0,53] - 2 m[7,0,54] + 4 m[7,0,55] - 2 m[7,1,53]
   + 5 m[7,1,54] + 4 m[7,1,55] - 50000 c[7,13,-1.0] >= -49999
 R3849: - 17 m[7,0,52] - 4 m[7,0,53] + 5 m[7,0,54] - m[7,0,55]
   + 4 m[7,1,52] + 2 m[7,1,53] + 13 m[7,1,54] - 10 m[7,1,55]
   - 50000 c[7,13,-1.0] >= -50015
 R3850: - 2 m[7,0,52] + 4 m[7,0,53] + 11 m[7,0,54] - 2 m[7,0,55]
   + 9 m[7,1,52] + 9 m[7,1,53] + 14 m[7,1,54] + 14 m[7,1,55]
   - 50000 c[7,13,-1.0] >= -49984
 R3851: 5 m[7,0,52] + 2 m[7,0,53] + 2 m[7,0,54] + 4 m[7,0,55] + 3 m[7,1,53]
   + m[7,1,55] - 50000 c[7,13,-1.0] >= -49995
 R3852: - 3324 m[7,0,52] + m[7,0,53] + 3324 m[7,0,55] + m[7,1,52]
   - 583 m[7,1,53] - 584 m[7,1,54] - 2740 m[7,1,55] - 50000 c[7,13,-1.0]
   >= -53907
 R3853: 15 m[7,0,52] - 2 m[7,0,53] + 3 m[7,0,54] - 10 m[7,0,55] - m[7,1,52]
   - 3 m[7,1,53] - 11 m[7,1,54] - 5 m[7,1,55] - 50000 c[7,13,-1.0]
   >= -50017
 R3854: - 5 m[7,0,52] - 2 m[7,0,53] + m[7,0,54] - 10 m[7,0,55]
   - 3 m[7,1,52] - 3 m[7,1,53] - 11 m[7,1,54] + 15 m[7,1,55]
   - 50000 c[7,13,-1.0] >= -50019
 R3855: c[7,14,0.0] + c[7,14,-3.0] + c[7,14,-2.0] + c[7,14,-1.41504]
   + c[7,14,-1.0] = 1
 R3856: - m[7,0,56] - m[7,0,57] - m[7,0,58] - m[7,0,59] - m[7,1,56]
   - m[7,1,57] - m[7,1,58] - m[7,1,59] - 50000 c[7,14,0.0] >= -50000
 R3857: c[7,14,-3.0] = 0
 R3858: - m[7,0,56] - m[7,0,59] - m[7,1,58] - m[7,1,59]
   - 50000 c[7,14,-2.0] >= -50003
 R3859: m[7,0,56] + 2 m[7,0,59] + m[7,1,59] - 50000 c[7,14,-2.0] >= -49998
 R3860: 3 m[7,0,56] + m[7,0,59] + 4 m[7,1,58] + 2 m[7,1,59]
   - 50000 c[7,14,-2.0] >= -49995
 R3861: c[7,14,-1.41504] = 0
 R3862: - 6649 m[7,0,56] + 3 m[7,0,57] - 7 m[7,0,58] + 4 m[7,0,59]
   - 5 m[7,1,56] - m[7,1,57] + 6639 m[7,1,58] - 6648 m[7,1,59]
   - 50000 c[7,14,-1.0] >= -56657
 R3863: 10 m[7,0,56] + 2 m[7,0,57] - 6641 m[7,0,58] - 6649 m[7,0,59]
   + m[7,1,56] + 3 m[7,1,57] - 6647 m[7,1,58] - 3 m[7,1,59]
   - 50000 c[7,14,-1.0] >= -63289
 R3864: 6 m[7,0,56] - m[7,0,57] - 2 m[7,0,58] + 4 m[7,0,59] - 2 m[7,1,57]
   + 5 m[7,1,58] + 4 m[7,1,59] - 50000 c[7,14,-1.0] >= -49999
 R3865: - 17 m[7,0,56] - 4 m[7,0,57] + 5 m[7,0,58] - m[7,0,59]
   + 4 m[7,1,56] + 2 m[7,1,57] + 13 m[7,1,58] - 10 m[7,1,59]
   - 50000 c[7,14,-1.0] >= -50015
 R3866: - 2 m[7,0,56] + 4 m[7,0,57] + 11 m[7,0,58] - 2 m[7,0,59]
   + 9 m[7,1,56] + 9 m[7,1,57] + 14 m[7,1,58] + 14 m[7,1,59]
   - 50000 c[7,14,-1.0] >= -49984
 R3867: 5 m[7,0,56] + 2 m[7,0,57] + 2 m[7,0,58] + 4 m[7,0,59] + 3 m[7,1,57]
   + m[7,1,59] - 50000 c[7,14,-1.0] >= -49995
 R3868: - 3324 m[7,0,56] + m[7,0,57] + 3324 m[7,0,59] + m[7,1,56]
   - 583 m[7,1,57] - 584 m[7,1,58] - 2740 m[7,1,59] - 50000 c[7,14,-1.0]
   >= -53907
 R3869: 15 m[7,0,56] - 2 m[7,0,57] + 3 m[7,0,58] - 10 m[7,0,59] - m[7,1,56]
   - 3 m[7,1,57] - 11 m[7,1,58] - 5 m[7,1,59] - 50000 c[7,14,-1.0]
   >= -50017
 R3870: - 5 m[7,0,56] - 2 m[7,0,57] + m[7,0,58] - 10 m[7,0,59]
   - 3 m[7,1,56] - 3 m[7,1,57] - 11 m[7,1,58] + 15 m[7,1,59]
   - 50000 c[7,14,-1.0] >= -50019
 R3871: c[7,15,0.0] + c[7,15,-3.0] + c[7,15,-2.0] + c[7,15,-1.41504]
   + c[7,15,-1.0] = 1
 R3872: c[7,15,0.0] = 0
 R3873: c[7,15,-3.0] = 0
 R3874: - 5 m[7,0,61] + 4 m[7,0,62] - m[7,1,60] + 4 m[7,1,61] - m[7,1,62]
   + m[7,1,63] - 50000 c[7,15,-2.0] >= -50002
 R3875: 7978 m[7,0,61] + m[7,0,62] + 7979 m[7,1,60] + m[7,1,61]
   - 7979 m[7,1,62] + 7979 m[7,1,63] - 50000 c[7,15,-2.0] >= -50000
 R3876: m[7,0,61] - m[7,1,60] + m[7,1,62] + m[7,1,63] - 50000 c[7,15,-2.0]
   >= -50000
 R3877: - 5 m[7,0,61] - 4 m[7,0,62] + m[7,1,60] - 4 m[7,1,61] + m[7,1,62]
   + m[7,1,63] - 50000 c[7,15,-2.0] >= -50008
 R3878: - m[7,0,61] - m[7,1,60] + m[7,1,62] - m[7,1,63]
   - 50000 c[7,15,-2.0] >= -50002
 R3879: 5 m[7,0,61] + 4 m[7,0,62] + m[7,1,60] - 4 m[7,1,61] + m[7,1,62]
   - m[7,1,63] - 50000 c[7,15,-2.0] >= -50000
 R3880: 5 m[7,0,61] - 4 m[7,0,62] - m[7,1,60] + 4 m[7,1,61] - m[7,1,62]
   - m[7,1,63] - 50000 c[7,15,-2.0] >= -50002
 R3881: - 5 m[7,0,61] + 4 m[7,0,62] + m[7,1,60] + 4 m[7,1,61] - m[7,1,62]
   - m[7,1,63] - 50000 c[7,15,-2.0] >= -50002
 R3882: c[7,15,-1.41504] = 0
 R3883: c[7,15,-1.0] = 0
 R3884: c[8,0,0.0] + c[8,0,-3.0] + c[8,0,-2.0] + c[8,0,-1.41504]
   + c[8,0,-1.0] = 1
 R3885: c[8,0,0.0] = 0
 R3886: c[8,0,-3.0] = 0
 R3887: - 5 m[8,0,1] + 4 m[8,0,2] - m[8,1,0] + 4 m[8,1,1] - m[8,1,2]
   + m[8,1,3] - 50000 c[8,0,-2.0] >= -50002
 R3888: 7978 m[8,0,1] + m[8,0,2] + 7979 m[8,1,0] + m[8,1,1] - 7979 m[8,1,2]
   + 7979 m[8,1,3] - 50000 c[8,0,-2.0] >= -50000
 R3889: m[8,0,1] - m[8,1,0] + m[8,1,2] + m[8,1,3] - 50000 c[8,0,-2.0]
   >= -50000
 R3890: - 5 m[8,0,1] - 4 m[8,0,2] + m[8,1,0] - 4 m[8,1,1] + m[8,1,2]
   + m[8,1,3] - 50000 c[8,0,-2.0] >= -50008
 R3891: - m[8,0,1] - m[8,1,0] + m[8,1,2] - m[8,1,3] - 50000 c[8,0,-2.0]
   >= -50002
 R3892: 5 m[8,0,1] + 4 m[8,0,2] + m[8,1,0] - 4 m[8,1,1] + m[8,1,2]
   - m[8,1,3] - 50000 c[8,0,-2.0] >= -50000
 R3893: 5 m[8,0,1] - 4 m[8,0,2] - m[8,1,0] + 4 m[8,1,1] - m[8,1,2]
   - m[8,1,3] - 50000 c[8,0,-2.0] >= -50002
 R3894: - 5 m[8,0,1] + 4 m[8,0,2] + m[8,1,0] + 4 m[8,1,1] - m[8,1,2]
   - m[8,1,3] - 50000 c[8,0,-2.0] >= -50002
 R3895: c[8,0,-1.41504] = 0
 R3896: c[8,0,-1.0] = 0
 R3897: c[8,1,0.0] + c[8,1,-3.0] + c[8,1,-2.0] + c[8,1,-1.41504]
   + c[8,1,-1.0] = 1
 R3898: - m[8,0,4] - m[8,0,5] - m[8,0,6] - m[8,0,7] - m[8,1,4] - m[8,1,5]
   - m[8,1,6] - m[8,1,7] - 50000 c[8,1,0.0] >= -50000
 R3899: c[8,1,-3.0] = 0
 R3900: - m[8,0,4] - m[8,0,7] - m[8,1,6] - m[8,1,7] - 50000 c[8,1,-2.0]
   >= -50003
 R3901: m[8,0,4] + 2 m[8,0,7] + m[8,1,7] - 50000 c[8,1,-2.0] >= -49998
 R3902: 3 m[8,0,4] + m[8,0,7] + 4 m[8,1,6] + 2 m[8,1,7] - 50000 c[8,1,-2.0]
   >= -49995
 R3903: c[8,1,-1.41504] = 0
 R3904: - 6649 m[8,0,4] + 3 m[8,0,5] - 7 m[8,0,6] + 4 m[8,0,7] - 5 m[8,1,4]
   - m[8,1,5] + 6639 m[8,1,6] - 6648 m[8,1,7] - 50000 c[8,1,-1.0]
   >= -56657
 R3905: 10 m[8,0,4] + 2 m[8,0,5] - 6641 m[8,0,6] - 6649 m[8,0,7] + m[8,1,4]
   + 3 m[8,1,5] - 6647 m[8,1,6] - 3 m[8,1,7] - 50000 c[8,1,-1.0] >= -63289
 R3906: 6 m[8,0,4] - m[8,0,5] - 2 m[8,0,6] + 4 m[8,0,7] - 2 m[8,1,5]
   + 5 m[8,1,6] + 4 m[8,1,7] - 50000 c[8,1,-1.0] >= -49999
 R3907: - 17 m[8,0,4] - 4 m[8,0,5] + 5 m[8,0,6] - m[8,0,7] + 4 m[8,1,4]
   + 2 m[8,1,5] + 13 m[8,1,6] - 10 m[8,1,7] - 50000 c[8,1,-1.0] >= -50015
 R3908: - 2 m[8,0,4] + 4 m[8,0,5] + 11 m[8,0,6] - 2 m[8,0,7] + 9 m[8,1,4]
   + 9 m[8,1,5] + 14 m[8,1,6] + 14 m[8,1,7] - 50000 c[8,1,-1.0] >= -49984
 R3909: 5 m[8,0,4] + 2 m[8,0,5] + 2 m[8,0,6] + 4 m[8,0,7] + 3 m[8,1,5]
   + m[8,1,7] - 50000 c[8,1,-1.0] >= -49995
 R3910: - 3324 m[8,0,4] + m[8,0,5] + 3324 m[8,0,7] + m[8,1,4]
   - 583 m[8,1,5] - 584 m[8,1,6] - 2740 m[8,1,7] - 50000 c[8,1,-1.0]
   >= -53907
 R3911: 15 m[8,0,4] - 2 m[8,0,5] + 3 m[8,0,6] - 10 m[8,0,7] - m[8,1,4]
   - 3 m[8,1,5] - 11 m[8,1,6] - 5 m[8,1,7] - 50000 c[8,1,-1.0] >= -50017
 R3912: - 5 m[8,0,4] - 2 m[8,0,5] + m[8,0,6] - 10 m[8,0,7] - 3 m[8,1,4]
   - 3 m[8,1,5] - 11 m[8,1,6] + 15 m[8,1,7] - 50000 c[8,1,-1.0] >= -50019
 R3913: c[8,2,0.0] + c[8,2,-3.0] + c[8,2,-2.0] + c[8,2,-1.41504]
   + c[8,2,-1.0] = 1
 R3914: - m[8,0,8] - m[8,0,9] - m[8,0,10] - m[8,0,11] - m[8,1,8] - m[8,1,9]
   - m[8,1,10] - m[8,1,11] - 50000 c[8,2,0.0] >= -50000
 R3915: c[8,2,-3.0] = 0
 R3916: - m[8,0,8] - m[8,0,11] - m[8,1,10] - m[8,1,11] - 50000 c[8,2,-2.0]
   >= -50003
 R3917: m[8,0,8] + 2 m[8,0,11] + m[8,1,11] - 50000 c[8,2,-2.0] >= -49998
 R3918: 3 m[8,0,8] + m[8,0,11] + 4 m[8,1,10] + 2 m[8,1,11]
   - 50000 c[8,2,-2.0] >= -49995
 R3919: c[8,2,-1.41504] = 0
 R3920: - 6649 m[8,0,8] + 3 m[8,0,9] - 7 m[8,0,10] + 4 m[8,0,11]
   - 5 m[8,1,8] - m[8,1,9] + 6639 m[8,1,10] - 6648 m[8,1,11]
   - 50000 c[8,2,-1.0] >= -56657
 R3921: 10 m[8,0,8] + 2 m[8,0,9] - 6641 m[8,0,10] - 6649 m[8,0,11]
   + m[8,1,8] + 3 m[8,1,9] - 6647 m[8,1,10] - 3 m[8,1,11]
   - 50000 c[8,2,-1.0] >= -63289
 R3922: 6 m[8,0,8] - m[8,0,9] - 2 m[8,0,10] + 4 m[8,0,11] - 2 m[8,1,9]
   + 5 m[8,1,10] + 4 m[8,1,11] - 50000 c[8,2,-1.0] >= -49999
 R3923: - 17 m[8,0,8] - 4 m[8,0,9] + 5 m[8,0,10] - m[8,0,11] + 4 m[8,1,8]
   + 2 m[8,1,9] + 13 m[8,1,10] - 10 m[8,1,11] - 50000 c[8,2,-1.0]
   >= -50015
 R3924: - 2 m[8,0,8] + 4 m[8,0,9] + 11 m[8,0,10] - 2 m[8,0,11] + 9 m[8,1,8]
   + 9 m[8,1,9] + 14 m[8,1,10] + 14 m[8,1,11] - 50000 c[8,2,-1.0]
   >= -49984
 R3925: 5 m[8,0,8] + 2 m[8,0,9] + 2 m[8,0,10] + 4 m[8,0,11] + 3 m[8,1,9]
   + m[8,1,11] - 50000 c[8,2,-1.0] >= -49995
 R3926: - 3324 m[8,0,8] + m[8,0,9] + 3324 m[8,0,11] + m[8,1,8]
   - 583 m[8,1,9] - 584 m[8,1,10] - 2740 m[8,1,11] - 50000 c[8,2,-1.0]
   >= -53907
 R3927: 15 m[8,0,8] - 2 m[8,0,9] + 3 m[8,0,10] - 10 m[8,0,11] - m[8,1,8]
   - 3 m[8,1,9] - 11 m[8,1,10] - 5 m[8,1,11] - 50000 c[8,2,-1.0] >= -50017
 R3928: - 5 m[8,0,8] - 2 m[8,0,9] + m[8,0,10] - 10 m[8,0,11] - 3 m[8,1,8]
   - 3 m[8,1,9] - 11 m[8,1,10] + 15 m[8,1,11] - 50000 c[8,2,-1.0]
   >= -50019
 R3929: c[8,3,0.0] + c[8,3,-3.0] + c[8,3,-2.0] + c[8,3,-1.41504]
   + c[8,3,-1.0] = 1
 R3930: - m[8,0,12] - m[8,0,13] - m[8,0,14] - m[8,0,15] - m[8,1,12]
   - m[8,1,13] - m[8,1,14] - m[8,1,15] - 50000 c[8,3,0.0] >= -50000
 R3931: c[8,3,-3.0] = 0
 R3932: - m[8,0,12] - m[8,0,15] - m[8,1,14] - m[8,1,15] - 50000 c[8,3,-2.0]
   >= -50003
 R3933: m[8,0,12] + 2 m[8,0,15] + m[8,1,15] - 50000 c[8,3,-2.0] >= -49998
 R3934: 3 m[8,0,12] + m[8,0,15] + 4 m[8,1,14] + 2 m[8,1,15]
   - 50000 c[8,3,-2.0] >= -49995
 R3935: c[8,3,-1.41504] = 0
 R3936: - 6649 m[8,0,12] + 3 m[8,0,13] - 7 m[8,0,14] + 4 m[8,0,15]
   - 5 m[8,1,12] - m[8,1,13] + 6639 m[8,1,14] - 6648 m[8,1,15]
   - 50000 c[8,3,-1.0] >= -56657
 R3937: 10 m[8,0,12] + 2 m[8,0,13] - 6641 m[8,0,14] - 6649 m[8,0,15]
   + m[8,1,12] + 3 m[8,1,13] - 6647 m[8,1,14] - 3 m[8,1,15]
   - 50000 c[8,3,-1.0] >= -63289
 R3938: 6 m[8,0,12] - m[8,0,13] - 2 m[8,0,14] + 4 m[8,0,15] - 2 m[8,1,13]
   + 5 m[8,1,14] + 4 m[8,1,15] - 50000 c[8,3,-1.0] >= -49999
 R3939: - 17 m[8,0,12] - 4 m[8,0,13] + 5 m[8,0,14] - m[8,0,15]
   + 4 m[8,1,12] + 2 m[8,1,13] + 13 m[8,1,14] - 10 m[8,1,15]
   - 50000 c[8,3,-1.0] >= -50015
 R3940: - 2 m[8,0,12] + 4 m[8,0,13] + 11 m[8,0,14] - 2 m[8,0,15]
   + 9 m[8,1,12] + 9 m[8,1,13] + 14 m[8,1,14] + 14 m[8,1,15]
   - 50000 c[8,3,-1.0] >= -49984
 R3941: 5 m[8,0,12] + 2 m[8,0,13] + 2 m[8,0,14] + 4 m[8,0,15] + 3 m[8,1,13]
   + m[8,1,15] - 50000 c[8,3,-1.0] >= -49995
 R3942: - 3324 m[8,0,12] + m[8,0,13] + 3324 m[8,0,15] + m[8,1,12]
   - 583 m[8,1,13] - 584 m[8,1,14] - 2740 m[8,1,15] - 50000 c[8,3,-1.0]
   >= -53907
 R3943: 15 m[8,0,12] - 2 m[8,0,13] + 3 m[8,0,14] - 10 m[8,0,15] - m[8,1,12]
   - 3 m[8,1,13] - 11 m[8,1,14] - 5 m[8,1,15] - 50000 c[8,3,-1.0]
   >= -50017
 R3944: - 5 m[8,0,12] - 2 m[8,0,13] + m[8,0,14] - 10 m[8,0,15]
   - 3 m[8,1,12] - 3 m[8,1,13] - 11 m[8,1,14] + 15 m[8,1,15]
   - 50000 c[8,3,-1.0] >= -50019
 R3945: c[8,4,0.0] + c[8,4,-3.0] + c[8,4,-2.0] + c[8,4,-1.41504]
   + c[8,4,-1.0] = 1
 R3946: - m[8,0,16] - m[8,0,17] - m[8,0,18] - m[8,0,19] - m[8,1,16]
   - m[8,1,17] - m[8,1,18] - m[8,1,19] - 50000 c[8,4,0.0] >= -50000
 R3947: c[8,4,-3.0] = 0
 R3948: - m[8,0,16] - m[8,0,19] - m[8,1,18] - m[8,1,19] - 50000 c[8,4,-2.0]
   >= -50003
 R3949: m[8,0,16] + 2 m[8,0,19] + m[8,1,19] - 50000 c[8,4,-2.0] >= -49998
 R3950: 3 m[8,0,16] + m[8,0,19] + 4 m[8,1,18] + 2 m[8,1,19]
   - 50000 c[8,4,-2.0] >= -49995
 R3951: c[8,4,-1.41504] = 0
 R3952: - 6649 m[8,0,16] + 3 m[8,0,17] - 7 m[8,0,18] + 4 m[8,0,19]
   - 5 m[8,1,16] - m[8,1,17] + 6639 m[8,1,18] - 6648 m[8,1,19]
   - 50000 c[8,4,-1.0] >= -56657
 R3953: 10 m[8,0,16] + 2 m[8,0,17] - 6641 m[8,0,18] - 6649 m[8,0,19]
   + m[8,1,16] + 3 m[8,1,17] - 6647 m[8,1,18] - 3 m[8,1,19]
   - 50000 c[8,4,-1.0] >= -63289
 R3954: 6 m[8,0,16] - m[8,0,17] - 2 m[8,0,18] + 4 m[8,0,19] - 2 m[8,1,17]
   + 5 m[8,1,18] + 4 m[8,1,19] - 50000 c[8,4,-1.0] >= -49999
 R3955: - 17 m[8,0,16] - 4 m[8,0,17] + 5 m[8,0,18] - m[8,0,19]
   + 4 m[8,1,16] + 2 m[8,1,17] + 13 m[8,1,18] - 10 m[8,1,19]
   - 50000 c[8,4,-1.0] >= -50015
 R3956: - 2 m[8,0,16] + 4 m[8,0,17] + 11 m[8,0,18] - 2 m[8,0,19]
   + 9 m[8,1,16] + 9 m[8,1,17] + 14 m[8,1,18] + 14 m[8,1,19]
   - 50000 c[8,4,-1.0] >= -49984
 R3957: 5 m[8,0,16] + 2 m[8,0,17] + 2 m[8,0,18] + 4 m[8,0,19] + 3 m[8,1,17]
   + m[8,1,19] - 50000 c[8,4,-1.0] >= -49995
 R3958: - 3324 m[8,0,16] + m[8,0,17] + 3324 m[8,0,19] + m[8,1,16]
   - 583 m[8,1,17] - 584 m[8,1,18] - 2740 m[8,1,19] - 50000 c[8,4,-1.0]
   >= -53907
 R3959: 15 m[8,0,16] - 2 m[8,0,17] + 3 m[8,0,18] - 10 m[8,0,19] - m[8,1,16]
   - 3 m[8,1,17] - 11 m[8,1,18] - 5 m[8,1,19] - 50000 c[8,4,-1.0]
   >= -50017
 R3960: - 5 m[8,0,16] - 2 m[8,0,17] + m[8,0,18] - 10 m[8,0,19]
   - 3 m[8,1,16] - 3 m[8,1,17] - 11 m[8,1,18] + 15 m[8,1,19]
   - 50000 c[8,4,-1.0] >= -50019
 R3961: c[8,5,0.0] + c[8,5,-3.0] + c[8,5,-2.0] + c[8,5,-1.41504]
   + c[8,5,-1.0] = 1
 R3962: c[8,5,0.0] = 0
 R3963: - m[8,0,21] - m[8,1,21] - m[8,1,22] - 50000 c[8,5,-3.0] >= -50002
 R3964: m[8,0,21] + m[8,1,21] - m[8,1,22] - 50000 c[8,5,-3.0] >= -50000
 R3965: m[8,0,21] - m[8,1,21] + m[8,1,22] - 50000 c[8,5,-3.0] >= -50000
 R3966: - m[8,0,21] + m[8,1,21] + m[8,1,22] - 50000 c[8,5,-3.0] >= -50000
 R3967: c[8,5,-2.0] = 0
 R3968: c[8,5,-1.41504] = 0
 R3969: c[8,5,-1.0] = 0
 R3970: c[8,6,0.0] + c[8,6,-3.0] + c[8,6,-2.0] + c[8,6,-1.41504]
   + c[8,6,-1.0] = 1
 R3971: - m[8,0,24] - m[8,0,25] - m[8,0,26] - m[8,0,27] - m[8,1,24]
   - m[8,1,25] - m[8,1,26] - m[8,1,27] - 50000 c[8,6,0.0] >= -50000
 R3972: c[8,6,-3.0] = 0
 R3973: - m[8,0,24] - m[8,0,27] - m[8,1,26] - m[8,1,27] - 50000 c[8,6,-2.0]
   >= -50003
 R3974: m[8,0,24] + 2 m[8,0,27] + m[8,1,27] - 50000 c[8,6,-2.0] >= -49998
 R3975: 3 m[8,0,24] + m[8,0,27] + 4 m[8,1,26] + 2 m[8,1,27]
   - 50000 c[8,6,-2.0] >= -49995
 R3976: c[8,6,-1.41504] = 0
 R3977: - 6649 m[8,0,24] + 3 m[8,0,25] - 7 m[8,0,26] + 4 m[8,0,27]
   - 5 m[8,1,24] - m[8,1,25] + 6639 m[8,1,26] - 6648 m[8,1,27]
   - 50000 c[8,6,-1.0] >= -56657
 R3978: 10 m[8,0,24] + 2 m[8,0,25] - 6641 m[8,0,26] - 6649 m[8,0,27]
   + m[8,1,24] + 3 m[8,1,25] - 6647 m[8,1,26] - 3 m[8,1,27]
   - 50000 c[8,6,-1.0] >= -63289
 R3979: 6 m[8,0,24] - m[8,0,25] - 2 m[8,0,26] + 4 m[8,0,27] - 2 m[8,1,25]
   + 5 m[8,1,26] + 4 m[8,1,27] - 50000 c[8,6,-1.0] >= -49999
 R3980: - 17 m[8,0,24] - 4 m[8,0,25] + 5 m[8,0,26] - m[8,0,27]
   + 4 m[8,1,24] + 2 m[8,1,25] + 13 m[8,1,26] - 10 m[8,1,27]
   - 50000 c[8,6,-1.0] >= -50015
 R3981: - 2 m[8,0,24] + 4 m[8,0,25] + 11 m[8,0,26] - 2 m[8,0,27]
   + 9 m[8,1,24] + 9 m[8,1,25] + 14 m[8,1,26] + 14 m[8,1,27]
   - 50000 c[8,6,-1.0] >= -49984
 R3982: 5 m[8,0,24] + 2 m[8,0,25] + 2 m[8,0,26] + 4 m[8,0,27] + 3 m[8,1,25]
   + m[8,1,27] - 50000 c[8,6,-1.0] >= -49995
 R3983: - 3324 m[8,0,24] + m[8,0,25] + 3324 m[8,0,27] + m[8,1,24]
   - 583 m[8,1,25] - 584 m[8,1,26] - 2740 m[8,1,27] - 50000 c[8,6,-1.0]
   >= -53907
 R3984: 15 m[8,0,24] - 2 m[8,0,25] + 3 m[8,0,26] - 10 m[8,0,27] - m[8,1,24]
   - 3 m[8,1,25] - 11 m[8,1,26] - 5 m[8,1,27] - 50000 c[8,6,-1.0]
   >= -50017
 R3985: - 5 m[8,0,24] - 2 m[8,0,25] + m[8,0,26] - 10 m[8,0,27]
   - 3 m[8,1,24] - 3 m[8,1,25] - 11 m[8,1,26] + 15 m[8,1,27]
   - 50000 c[8,6,-1.0] >= -50019
 R3986: c[8,7,0.0] + c[8,7,-3.0] + c[8,7,-2.0] + c[8,7,-1.41504]
   + c[8,7,-1.0] = 1
 R3987: - m[8,0,28] - m[8,0,29] - m[8,0,30] - m[8,0,31] - m[8,1,28]
   - m[8,1,29] - m[8,1,30] - m[8,1,31] - 50000 c[8,7,0.0] >= -50000
 R3988: c[8,7,-3.0] = 0
 R3989: - m[8,0,28] - m[8,0,31] - m[8,1,30] - m[8,1,31] - 50000 c[8,7,-2.0]
   >= -50003
 R3990: m[8,0,28] + 2 m[8,0,31] + m[8,1,31] - 50000 c[8,7,-2.0] >= -49998
 R3991: 3 m[8,0,28] + m[8,0,31] + 4 m[8,1,30] + 2 m[8,1,31]
   - 50000 c[8,7,-2.0] >= -49995
 R3992: c[8,7,-1.41504] = 0
 R3993: - 6649 m[8,0,28] + 3 m[8,0,29] - 7 m[8,0,30] + 4 m[8,0,31]
   - 5 m[8,1,28] - m[8,1,29] + 6639 m[8,1,30] - 6648 m[8,1,31]
   - 50000 c[8,7,-1.0] >= -56657
 R3994: 10 m[8,0,28] + 2 m[8,0,29] - 6641 m[8,0,30] - 6649 m[8,0,31]
   + m[8,1,28] + 3 m[8,1,29] - 6647 m[8,1,30] - 3 m[8,1,31]
   - 50000 c[8,7,-1.0] >= -63289
 R3995: 6 m[8,0,28] - m[8,0,29] - 2 m[8,0,30] + 4 m[8,0,31] - 2 m[8,1,29]
   + 5 m[8,1,30] + 4 m[8,1,31] - 50000 c[8,7,-1.0] >= -49999
 R3996: - 17 m[8,0,28] - 4 m[8,0,29] + 5 m[8,0,30] - m[8,0,31]
   + 4 m[8,1,28] + 2 m[8,1,29] + 13 m[8,1,30] - 10 m[8,1,31]
   - 50000 c[8,7,-1.0] >= -50015
 R3997: - 2 m[8,0,28] + 4 m[8,0,29] + 11 m[8,0,30] - 2 m[8,0,31]
   + 9 m[8,1,28] + 9 m[8,1,29] + 14 m[8,1,30] + 14 m[8,1,31]
   - 50000 c[8,7,-1.0] >= -49984
 R3998: 5 m[8,0,28] + 2 m[8,0,29] + 2 m[8,0,30] + 4 m[8,0,31] + 3 m[8,1,29]
   + m[8,1,31] - 50000 c[8,7,-1.0] >= -49995
 R3999: - 3324 m[8,0,28] + m[8,0,29] + 3324 m[8,0,31] + m[8,1,28]
   - 583 m[8,1,29] - 584 m[8,1,30] - 2740 m[8,1,31] - 50000 c[8,7,-1.0]
   >= -53907
 R4000: 15 m[8,0,28] - 2 m[8,0,29] + 3 m[8,0,30] - 10 m[8,0,31] - m[8,1,28]
   - 3 m[8,1,29] - 11 m[8,1,30] - 5 m[8,1,31] - 50000 c[8,7,-1.0]
   >= -50017
 R4001: - 5 m[8,0,28] - 2 m[8,0,29] + m[8,0,30] - 10 m[8,0,31]
   - 3 m[8,1,28] - 3 m[8,1,29] - 11 m[8,1,30] + 15 m[8,1,31]
   - 50000 c[8,7,-1.0] >= -50019
 R4002: c[8,8,0.0] + c[8,8,-3.0] + c[8,8,-2.0] + c[8,8,-1.41504]
   + c[8,8,-1.0] = 1
 R4003: - m[8,0,32] - m[8,0,33] - m[8,0,34] - m[8,0,35] - m[8,1,32]
   - m[8,1,33] - m[8,1,34] - m[8,1,35] - 50000 c[8,8,0.0] >= -50000
 R4004: c[8,8,-3.0] = 0
 R4005: - m[8,0,32] - m[8,0,35] - m[8,1,34] - m[8,1,35] - 50000 c[8,8,-2.0]
   >= -50003
 R4006: m[8,0,32] + 2 m[8,0,35] + m[8,1,35] - 50000 c[8,8,-2.0] >= -49998
 R4007: 3 m[8,0,32] + m[8,0,35] + 4 m[8,1,34] + 2 m[8,1,35]
   - 50000 c[8,8,-2.0] >= -49995
 R4008: c[8,8,-1.41504] = 0
 R4009: - 6649 m[8,0,32] + 3 m[8,0,33] - 7 m[8,0,34] + 4 m[8,0,35]
   - 5 m[8,1,32] - m[8,1,33] + 6639 m[8,1,34] - 6648 m[8,1,35]
   - 50000 c[8,8,-1.0] >= -56657
 R4010: 10 m[8,0,32] + 2 m[8,0,33] - 6641 m[8,0,34] - 6649 m[8,0,35]
   + m[8,1,32] + 3 m[8,1,33] - 6647 m[8,1,34] - 3 m[8,1,35]
   - 50000 c[8,8,-1.0] >= -63289
 R4011: 6 m[8,0,32] - m[8,0,33] - 2 m[8,0,34] + 4 m[8,0,35] - 2 m[8,1,33]
   + 5 m[8,1,34] + 4 m[8,1,35] - 50000 c[8,8,-1.0] >= -49999
 R4012: - 17 m[8,0,32] - 4 m[8,0,33] + 5 m[8,0,34] - m[8,0,35]
   + 4 m[8,1,32] + 2 m[8,1,33] + 13 m[8,1,34] - 10 m[8,1,35]
   - 50000 c[8,8,-1.0] >= -50015
 R4013: - 2 m[8,0,32] + 4 m[8,0,33] + 11 m[8,0,34] - 2 m[8,0,35]
   + 9 m[8,1,32] + 9 m[8,1,33] + 14 m[8,1,34] + 14 m[8,1,35]
   - 50000 c[8,8,-1.0] >= -49984
 R4014: 5 m[8,0,32] + 2 m[8,0,33] + 2 m[8,0,34] + 4 m[8,0,35] + 3 m[8,1,33]
   + m[8,1,35] - 50000 c[8,8,-1.0] >= -49995
 R4015: - 3324 m[8,0,32] + m[8,0,33] + 3324 m[8,0,35] + m[8,1,32]
   - 583 m[8,1,33] - 584 m[8,1,34] - 2740 m[8,1,35] - 50000 c[8,8,-1.0]
   >= -53907
 R4016: 15 m[8,0,32] - 2 m[8,0,33] + 3 m[8,0,34] - 10 m[8,0,35] - m[8,1,32]
   - 3 m[8,1,33] - 11 m[8,1,34] - 5 m[8,1,35] - 50000 c[8,8,-1.0]
   >= -50017
 R4017: - 5 m[8,0,32] - 2 m[8,0,33] + m[8,0,34] - 10 m[8,0,35]
   - 3 m[8,1,32] - 3 m[8,1,33] - 11 m[8,1,34] + 15 m[8,1,35]
   - 50000 c[8,8,-1.0] >= -50019
 R4018: c[8,9,0.0] + c[8,9,-3.0] + c[8,9,-2.0] + c[8,9,-1.41504]
   + c[8,9,-1.0] = 1
 R4019: - m[8,0,36] - m[8,0,37] - m[8,0,38] - m[8,0,39] - m[8,1,36]
   - m[8,1,37] - m[8,1,38] - m[8,1,39] - 50000 c[8,9,0.0] >= -50000
 R4020: c[8,9,-3.0] = 0
 R4021: - m[8,0,36] - m[8,0,39] - m[8,1,38] - m[8,1,39] - 50000 c[8,9,-2.0]
   >= -50003
 R4022: m[8,0,36] + 2 m[8,0,39] + m[8,1,39] - 50000 c[8,9,-2.0] >= -49998
 R4023: 3 m[8,0,36] + m[8,0,39] + 4 m[8,1,38] + 2 m[8,1,39]
   - 50000 c[8,9,-2.0] >= -49995
 R4024: c[8,9,-1.41504] = 0
 R4025: - 6649 m[8,0,36] + 3 m[8,0,37] - 7 m[8,0,38] + 4 m[8,0,39]
   - 5 m[8,1,36] - m[8,1,37] + 6639 m[8,1,38] - 6648 m[8,1,39]
   - 50000 c[8,9,-1.0] >= -56657
 R4026: 10 m[8,0,36] + 2 m[8,0,37] - 6641 m[8,0,38] - 6649 m[8,0,39]
   + m[8,1,36] + 3 m[8,1,37] - 6647 m[8,1,38] - 3 m[8,1,39]
   - 50000 c[8,9,-1.0] >= -63289
 R4027: 6 m[8,0,36] - m[8,0,37] - 2 m[8,0,38] + 4 m[8,0,39] - 2 m[8,1,37]
   + 5 m[8,1,38] + 4 m[8,1,39] - 50000 c[8,9,-1.0] >= -49999
 R4028: - 17 m[8,0,36] - 4 m[8,0,37] + 5 m[8,0,38] - m[8,0,39]
   + 4 m[8,1,36] + 2 m[8,1,37] + 13 m[8,1,38] - 10 m[8,1,39]
   - 50000 c[8,9,-1.0] >= -50015
 R4029: - 2 m[8,0,36] + 4 m[8,0,37] + 11 m[8,0,38] - 2 m[8,0,39]
   + 9 m[8,1,36] + 9 m[8,1,37] + 14 m[8,1,38] + 14 m[8,1,39]
   - 50000 c[8,9,-1.0] >= -49984
 R4030: 5 m[8,0,36] + 2 m[8,0,37] + 2 m[8,0,38] + 4 m[8,0,39] + 3 m[8,1,37]
   + m[8,1,39] - 50000 c[8,9,-1.0] >= -49995
 R4031: - 3324 m[8,0,36] + m[8,0,37] + 3324 m[8,0,39] + m[8,1,36]
   - 583 m[8,1,37] - 584 m[8,1,38] - 2740 m[8,1,39] - 50000 c[8,9,-1.0]
   >= -53907
 R4032: 15 m[8,0,36] - 2 m[8,0,37] + 3 m[8,0,38] - 10 m[8,0,39] - m[8,1,36]
   - 3 m[8,1,37] - 11 m[8,1,38] - 5 m[8,1,39] - 50000 c[8,9,-1.0]
   >= -50017
 R4033: - 5 m[8,0,36] - 2 m[8,0,37] + m[8,0,38] - 10 m[8,0,39]
   - 3 m[8,1,36] - 3 m[8,1,37] - 11 m[8,1,38] + 15 m[8,1,39]
   - 50000 c[8,9,-1.0] >= -50019
 R4034: c[8,10,0.0] + c[8,10,-3.0] + c[8,10,-2.0] + c[8,10,-1.41504]
   + c[8,10,-1.0] = 1
 R4035: - m[8,0,40] - m[8,0,41] - m[8,0,42] - m[8,0,43] - m[8,1,40]
   - m[8,1,41] - m[8,1,42] - m[8,1,43] - 50000 c[8,10,0.0] >= -50000
 R4036: c[8,10,-3.0] = 0
 R4037: - m[8,0,40] - m[8,0,43] - m[8,1,42] - m[8,1,43]
   - 50000 c[8,10,-2.0] >= -50003
 R4038: m[8,0,40] + 2 m[8,0,43] + m[8,1,43] - 50000 c[8,10,-2.0] >= -49998
 R4039: 3 m[8,0,40] + m[8,0,43] + 4 m[8,1,42] + 2 m[8,1,43]
   - 50000 c[8,10,-2.0] >= -49995
 R4040: c[8,10,-1.41504] = 0
 R4041: - 6649 m[8,0,40] + 3 m[8,0,41] - 7 m[8,0,42] + 4 m[8,0,43]
   - 5 m[8,1,40] - m[8,1,41] + 6639 m[8,1,42] - 6648 m[8,1,43]
   - 50000 c[8,10,-1.0] >= -56657
 R4042: 10 m[8,0,40] + 2 m[8,0,41] - 6641 m[8,0,42] - 6649 m[8,0,43]
   + m[8,1,40] + 3 m[8,1,41] - 6647 m[8,1,42] - 3 m[8,1,43]
   - 50000 c[8,10,-1.0] >= -63289
 R4043: 6 m[8,0,40] - m[8,0,41] - 2 m[8,0,42] + 4 m[8,0,43] - 2 m[8,1,41]
   + 5 m[8,1,42] + 4 m[8,1,43] - 50000 c[8,10,-1.0] >= -49999
 R4044: - 17 m[8,0,40] - 4 m[8,0,41] + 5 m[8,0,42] - m[8,0,43]
   + 4 m[8,1,40] + 2 m[8,1,41] + 13 m[8,1,42] - 10 m[8,1,43]
   - 50000 c[8,10,-1.0] >= -50015
 R4045: - 2 m[8,0,40] + 4 m[8,0,41] + 11 m[8,0,42] - 2 m[8,0,43]
   + 9 m[8,1,40] + 9 m[8,1,41] + 14 m[8,1,42] + 14 m[8,1,43]
   - 50000 c[8,10,-1.0] >= -49984
 R4046: 5 m[8,0,40] + 2 m[8,0,41] + 2 m[8,0,42] + 4 m[8,0,43] + 3 m[8,1,41]
   + m[8,1,43] - 50000 c[8,10,-1.0] >= -49995
 R4047: - 3324 m[8,0,40] + m[8,0,41] + 3324 m[8,0,43] + m[8,1,40]
   - 583 m[8,1,41] - 584 m[8,1,42] - 2740 m[8,1,43] - 50000 c[8,10,-1.0]
   >= -53907
 R4048: 15 m[8,0,40] - 2 m[8,0,41] + 3 m[8,0,42] - 10 m[8,0,43] - m[8,1,40]
   - 3 m[8,1,41] - 11 m[8,1,42] - 5 m[8,1,43] - 50000 c[8,10,-1.0]
   >= -50017
 R4049: - 5 m[8,0,40] - 2 m[8,0,41] + m[8,0,42] - 10 m[8,0,43]
   - 3 m[8,1,40] - 3 m[8,1,41] - 11 m[8,1,42] + 15 m[8,1,43]
   - 50000 c[8,10,-1.0] >= -50019
 R4050: c[8,11,0.0] + c[8,11,-3.0] + c[8,11,-2.0] + c[8,11,-1.41504]
   + c[8,11,-1.0] = 1
 R4051: - m[8,0,44] - m[8,0,45] - m[8,0,46] - m[8,0,47] - m[8,1,44]
   - m[8,1,45] - m[8,1,46] - m[8,1,47] - 50000 c[8,11,0.0] >= -50000
 R4052: c[8,11,-3.0] = 0
 R4053: - m[8,0,44] - m[8,0,47] - m[8,1,46] - m[8,1,47]
   - 50000 c[8,11,-2.0] >= -50003
 R4054: m[8,0,44] + 2 m[8,0,47] + m[8,1,47] - 50000 c[8,11,-2.0] >= -49998
 R4055: 3 m[8,0,44] + m[8,0,47] + 4 m[8,1,46] + 2 m[8,1,47]
   - 50000 c[8,11,-2.0] >= -49995
 R4056: c[8,11,-1.41504] = 0
 R4057: - 6649 m[8,0,44] + 3 m[8,0,45] - 7 m[8,0,46] + 4 m[8,0,47]
   - 5 m[8,1,44] - m[8,1,45] + 6639 m[8,1,46] - 6648 m[8,1,47]
   - 50000 c[8,11,-1.0] >= -56657
 R4058: 10 m[8,0,44] + 2 m[8,0,45] - 6641 m[8,0,46] - 6649 m[8,0,47]
   + m[8,1,44] + 3 m[8,1,45] - 6647 m[8,1,46] - 3 m[8,1,47]
   - 50000 c[8,11,-1.0] >= -63289
 R4059: 6 m[8,0,44] - m[8,0,45] - 2 m[8,0,46] + 4 m[8,0,47] - 2 m[8,1,45]
   + 5 m[8,1,46] + 4 m[8,1,47] - 50000 c[8,11,-1.0] >= -49999
 R4060: - 17 m[8,0,44] - 4 m[8,0,45] + 5 m[8,0,46] - m[8,0,47]
   + 4 m[8,1,44] + 2 m[8,1,45] + 13 m[8,1,46] - 10 m[8,1,47]
   - 50000 c[8,11,-1.0] >= -50015
 R4061: - 2 m[8,0,44] + 4 m[8,0,45] + 11 m[8,0,46] - 2 m[8,0,47]
   + 9 m[8,1,44] + 9 m[8,1,45] + 14 m[8,1,46] + 14 m[8,1,47]
   - 50000 c[8,11,-1.0] >= -49984
 R4062: 5 m[8,0,44] + 2 m[8,0,45] + 2 m[8,0,46] + 4 m[8,0,47] + 3 m[8,1,45]
   + m[8,1,47] - 50000 c[8,11,-1.0] >= -49995
 R4063: - 3324 m[8,0,44] + m[8,0,45] + 3324 m[8,0,47] + m[8,1,44]
   - 583 m[8,1,45] - 584 m[8,1,46] - 2740 m[8,1,47] - 50000 c[8,11,-1.0]
   >= -53907
 R4064: 15 m[8,0,44] - 2 m[8,0,45] + 3 m[8,0,46] - 10 m[8,0,47] - m[8,1,44]
   - 3 m[8,1,45] - 11 m[8,1,46] - 5 m[8,1,47] - 50000 c[8,11,-1.0]
   >= -50017
 R4065: - 5 m[8,0,44] - 2 m[8,0,45] + m[8,0,46] - 10 m[8,0,47]
   - 3 m[8,1,44] - 3 m[8,1,45] - 11 m[8,1,46] + 15 m[8,1,47]
   - 50000 c[8,11,-1.0] >= -50019
 R4066: c[8,12,0.0] + c[8,12,-3.0] + c[8,12,-2.0] + c[8,12,-1.41504]
   + c[8,12,-1.0] = 1
 R4067: - m[8,0,48] - m[8,0,49] - m[8,0,50] - m[8,0,51] - m[8,1,48]
   - m[8,1,49] - m[8,1,50] - m[8,1,51] - 50000 c[8,12,0.0] >= -50000
 R4068: c[8,12,-3.0] = 0
 R4069: - m[8,0,48] - m[8,0,51] - m[8,1,50] - m[8,1,51]
   - 50000 c[8,12,-2.0] >= -50003
 R4070: m[8,0,48] + 2 m[8,0,51] + m[8,1,51] - 50000 c[8,12,-2.0] >= -49998
 R4071: 3 m[8,0,48] + m[8,0,51] + 4 m[8,1,50] + 2 m[8,1,51]
   - 50000 c[8,12,-2.0] >= -49995
 R4072: c[8,12,-1.41504] = 0
 R4073: - 6649 m[8,0,48] + 3 m[8,0,49] - 7 m[8,0,50] + 4 m[8,0,51]
   - 5 m[8,1,48] - m[8,1,49] + 6639 m[8,1,50] - 6648 m[8,1,51]
   - 50000 c[8,12,-1.0] >= -56657
 R4074: 10 m[8,0,48] + 2 m[8,0,49] - 6641 m[8,0,50] - 6649 m[8,0,51]
   + m[8,1,48] + 3 m[8,1,49] - 6647 m[8,1,50] - 3 m[8,1,51]
   - 50000 c[8,12,-1.0] >= -63289
 R4075: 6 m[8,0,48] - m[8,0,49] - 2 m[8,0,50] + 4 m[8,0,51] - 2 m[8,1,49]
   + 5 m[8,1,50] + 4 m[8,1,51] - 50000 c[8,12,-1.0] >= -49999
 R4076: - 17 m[8,0,48] - 4 m[8,0,49] + 5 m[8,0,50] - m[8,0,51]
   + 4 m[8,1,48] + 2 m[8,1,49] + 13 m[8,1,50] - 10 m[8,1,51]
   - 50000 c[8,12,-1.0] >= -50015
 R4077: - 2 m[8,0,48] + 4 m[8,0,49] + 11 m[8,0,50] - 2 m[8,0,51]
   + 9 m[8,1,48] + 9 m[8,1,49] + 14 m[8,1,50] + 14 m[8,1,51]
   - 50000 c[8,12,-1.0] >= -49984
 R4078: 5 m[8,0,48] + 2 m[8,0,49] + 2 m[8,0,50] + 4 m[8,0,51] + 3 m[8,1,49]
   + m[8,1,51] - 50000 c[8,12,-1.0] >= -49995
 R4079: - 3324 m[8,0,48] + m[8,0,49] + 3324 m[8,0,51] + m[8,1,48]
   - 583 m[8,1,49] - 584 m[8,1,50] - 2740 m[8,1,51] - 50000 c[8,12,-1.0]
   >= -53907
 R4080: 15 m[8,0,48] - 2 m[8,0,49] + 3 m[8,0,50] - 10 m[8,0,51] - m[8,1,48]
   - 3 m[8,1,49] - 11 m[8,1,50] - 5 m[8,1,51] - 50000 c[8,12,-1.0]
   >= -50017
 R4081: - 5 m[8,0,48] - 2 m[8,0,49] + m[8,0,50] - 10 m[8,0,51]
   - 3 m[8,1,48] - 3 m[8,1,49] - 11 m[8,1,50] + 15 m[8,1,51]
   - 50000 c[8,12,-1.0] >= -50019
 R4082: c[8,13,0.0] + c[8,13,-3.0] + c[8,13,-2.0] + c[8,13,-1.41504]
   + c[8,13,-1.0] = 1
 R4083: - m[8,0,52] - m[8,0,53] - m[8,0,54] - m[8,0,55] - m[8,1,52]
   - m[8,1,53] - m[8,1,54] - m[8,1,55] - 50000 c[8,13,0.0] >= -50000
 R4084: c[8,13,-3.0] = 0
 R4085: - m[8,0,52] - m[8,0,55] - m[8,1,54] - m[8,1,55]
   - 50000 c[8,13,-2.0] >= -50003
 R4086: m[8,0,52] + 2 m[8,0,55] + m[8,1,55] - 50000 c[8,13,-2.0] >= -49998
 R4087: 3 m[8,0,52] + m[8,0,55] + 4 m[8,1,54] + 2 m[8,1,55]
   - 50000 c[8,13,-2.0] >= -49995
 R4088: c[8,13,-1.41504] = 0
 R4089: - 6649 m[8,0,52] + 3 m[8,0,53] - 7 m[8,0,54] + 4 m[8,0,55]
   - 5 m[8,1,52] - m[8,1,53] + 6639 m[8,1,54] - 6648 m[8,1,55]
   - 50000 c[8,13,-1.0] >= -56657
 R4090: 10 m[8,0,52] + 2 m[8,0,53] - 6641 m[8,0,54] - 6649 m[8,0,55]
   + m[8,1,52] + 3 m[8,1,53] - 6647 m[8,1,54] - 3 m[8,1,55]
   - 50000 c[8,13,-1.0] >= -63289
 R4091: 6 m[8,0,52] - m[8,0,53] - 2 m[8,0,54] + 4 m[8,0,55] - 2 m[8,1,53]
   + 5 m[8,1,54] + 4 m[8,1,55] - 50000 c[8,13,-1.0] >= -49999
 R4092: - 17 m[8,0,52] - 4 m[8,0,53] + 5 m[8,0,54] - m[8,0,55]
   + 4 m[8,1,52] + 2 m[8,1,53] + 13 m[8,1,54] - 10 m[8,1,55]
   - 50000 c[8,13,-1.0] >= -50015
 R4093: - 2 m[8,0,52] + 4 m[8,0,53] + 11 m[8,0,54] - 2 m[8,0,55]
   + 9 m[8,1,52] + 9 m[8,1,53] + 14 m[8,1,54] + 14 m[8,1,55]
   - 50000 c[8,13,-1.0] >= -49984
 R4094: 5 m[8,0,52] + 2 m[8,0,53] + 2 m[8,0,54] + 4 m[8,0,55] + 3 m[8,1,53]
   + m[8,1,55] - 50000 c[8,13,-1.0] >= -49995
 R4095: - 3324 m[8,0,52] + m[8,0,53] + 3324 m[8,0,55] + m[8,1,52]
   - 583 m[8,1,53] - 584 m[8,1,54] - 2740 m[8,1,55] - 50000 c[8,13,-1.0]
   >= -53907
 R4096: 15 m[8,0,52] - 2 m[8,0,53] + 3 m[8,0,54] - 10 m[8,0,55] - m[8,1,52]
   - 3 m[8,1,53] - 11 m[8,1,54] - 5 m[8,1,55] - 50000 c[8,13,-1.0]
   >= -50017
 R4097: - 5 m[8,0,52] - 2 m[8,0,53] + m[8,0,54] - 10 m[8,0,55]
   - 3 m[8,1,52] - 3 m[8,1,53] - 11 m[8,1,54] + 15 m[8,1,55]
   - 50000 c[8,13,-1.0] >= -50019
 R4098: c[8,14,0.0] + c[8,14,-3.0] + c[8,14,-2.0] + c[8,14,-1.41504]
   + c[8,14,-1.0] = 1
 R4099: - m[8,0,56] - m[8,0,57] - m[8,0,58] - m[8,0,59] - m[8,1,56]
   - m[8,1,57] - m[8,1,58] - m[8,1,59] - 50000 c[8,14,0.0] >= -50000
 R4100: c[8,14,-3.0] = 0
 R4101: - m[8,0,56] - m[8,0,59] - m[8,1,58] - m[8,1,59]
   - 50000 c[8,14,-2.0] >= -50003
 R4102: m[8,0,56] + 2 m[8,0,59] + m[8,1,59] - 50000 c[8,14,-2.0] >= -49998
 R4103: 3 m[8,0,56] + m[8,0,59] + 4 m[8,1,58] + 2 m[8,1,59]
   - 50000 c[8,14,-2.0] >= -49995
 R4104: c[8,14,-1.41504] = 0
 R4105: - 6649 m[8,0,56] + 3 m[8,0,57] - 7 m[8,0,58] + 4 m[8,0,59]
   - 5 m[8,1,56] - m[8,1,57] + 6639 m[8,1,58] - 6648 m[8,1,59]
   - 50000 c[8,14,-1.0] >= -56657
 R4106: 10 m[8,0,56] + 2 m[8,0,57] - 6641 m[8,0,58] - 6649 m[8,0,59]
   + m[8,1,56] + 3 m[8,1,57] - 6647 m[8,1,58] - 3 m[8,1,59]
   - 50000 c[8,14,-1.0] >= -63289
 R4107: 6 m[8,0,56] - m[8,0,57] - 2 m[8,0,58] + 4 m[8,0,59] - 2 m[8,1,57]
   + 5 m[8,1,58] + 4 m[8,1,59] - 50000 c[8,14,-1.0] >= -49999
 R4108: - 17 m[8,0,56] - 4 m[8,0,57] + 5 m[8,0,58] - m[8,0,59]
   + 4 m[8,1,56] + 2 m[8,1,57] + 13 m[8,1,58] - 10 m[8,1,59]
   - 50000 c[8,14,-1.0] >= -50015
 R4109: - 2 m[8,0,56] + 4 m[8,0,57] + 11 m[8,0,58] - 2 m[8,0,59]
   + 9 m[8,1,56] + 9 m[8,1,57] + 14 m[8,1,58] + 14 m[8,1,59]
   - 50000 c[8,14,-1.0] >= -49984
 R4110: 5 m[8,0,56] + 2 m[8,0,57] + 2 m[8,0,58] + 4 m[8,0,59] + 3 m[8,1,57]
   + m[8,1,59] - 50000 c[8,14,-1.0] >= -49995
 R4111: - 3324 m[8,0,56] + m[8,0,57] + 3324 m[8,0,59] + m[8,1,56]
   - 583 m[8,1,57] - 584 m[8,1,58] - 2740 m[8,1,59] - 50000 c[8,14,-1.0]
   >= -53907
 R4112: 15 m[8,0,56] - 2 m[8,0,57] + 3 m[8,0,58] - 10 m[8,0,59] - m[8,1,56]
   - 3 m[8,1,57] - 11 m[8,1,58] - 5 m[8,1,59] - 50000 c[8,14,-1.0]
   >= -50017
 R4113: - 5 m[8,0,56] - 2 m[8,0,57] + m[8,0,58] - 10 m[8,0,59]
   - 3 m[8,1,56] - 3 m[8,1,57] - 11 m[8,1,58] + 15 m[8,1,59]
   - 50000 c[8,14,-1.0] >= -50019
 R4114: c[8,15,0.0] + c[8,15,-3.0] + c[8,15,-2.0] + c[8,15,-1.41504]
   + c[8,15,-1.0] = 1
 R4115: - m[8,0,60] - m[8,0,61] - m[8,0,62] - m[8,0,63] - m[8,1,60]
   - m[8,1,61] - m[8,1,62] - m[8,1,63] - 50000 c[8,15,0.0] >= -50000
 R4116: c[8,15,-3.0] = 0
 R4117: - m[8,0,60] - m[8,0,63] - m[8,1,62] - m[8,1,63]
   - 50000 c[8,15,-2.0] >= -50003
 R4118: m[8,0,60] + 2 m[8,0,63] + m[8,1,63] - 50000 c[8,15,-2.0] >= -49998
 R4119: 3 m[8,0,60] + m[8,0,63] + 4 m[8,1,62] + 2 m[8,1,63]
   - 50000 c[8,15,-2.0] >= -49995
 R4120: c[8,15,-1.41504] = 0
 R4121: - 6649 m[8,0,60] + 3 m[8,0,61] - 7 m[8,0,62] + 4 m[8,0,63]
   - 5 m[8,1,60] - m[8,1,61] + 6639 m[8,1,62] - 6648 m[8,1,63]
   - 50000 c[8,15,-1.0] >= -56657
 R4122: 10 m[8,0,60] + 2 m[8,0,61] - 6641 m[8,0,62] - 6649 m[8,0,63]
   + m[8,1,60] + 3 m[8,1,61] - 6647 m[8,1,62] - 3 m[8,1,63]
   - 50000 c[8,15,-1.0] >= -63289
 R4123: 6 m[8,0,60] - m[8,0,61] - 2 m[8,0,62] + 4 m[8,0,63] - 2 m[8,1,61]
   + 5 m[8,1,62] + 4 m[8,1,63] - 50000 c[8,15,-1.0] >= -49999
 R4124: - 17 m[8,0,60] - 4 m[8,0,61] + 5 m[8,0,62] - m[8,0,63]
   + 4 m[8,1,60] + 2 m[8,1,61] + 13 m[8,1,62] - 10 m[8,1,63]
   - 50000 c[8,15,-1.0] >= -50015
 R4125: - 2 m[8,0,60] + 4 m[8,0,61] + 11 m[8,0,62] - 2 m[8,0,63]
   + 9 m[8,1,60] + 9 m[8,1,61] + 14 m[8,1,62] + 14 m[8,1,63]
   - 50000 c[8,15,-1.0] >= -49984
 R4126: 5 m[8,0,60] + 2 m[8,0,61] + 2 m[8,0,62] + 4 m[8,0,63] + 3 m[8,1,61]
   + m[8,1,63] - 50000 c[8,15,-1.0] >= -49995
 R4127: - 3324 m[8,0,60] + m[8,0,61] + 3324 m[8,0,63] + m[8,1,60]
   - 583 m[8,1,61] - 584 m[8,1,62] - 2740 m[8,1,63] - 50000 c[8,15,-1.0]
   >= -53907
 R4128: 15 m[8,0,60] - 2 m[8,0,61] + 3 m[8,0,62] - 10 m[8,0,63] - m[8,1,60]
   - 3 m[8,1,61] - 11 m[8,1,62] - 5 m[8,1,63] - 50000 c[8,15,-1.0]
   >= -50017
 R4129: - 5 m[8,0,60] - 2 m[8,0,61] + m[8,0,62] - 10 m[8,0,63]
   - 3 m[8,1,60] - 3 m[8,1,61] - 11 m[8,1,62] + 15 m[8,1,63]
   - 50000 c[8,15,-1.0] >= -50019
 R4130: c[9,0,0.0] + c[9,0,-3.0] + c[9,0,-2.0] + c[9,0,-1.41504]
   + c[9,0,-1.0] = 1
 R4131: - m[9,0,0] - m[9,0,1] - m[9,0,2] - m[9,0,3] - m[9,1,0] - m[9,1,1]
   - m[9,1,2] - m[9,1,3] - 50000 c[9,0,0.0] >= -50000
 R4132: c[9,0,-3.0] = 0
 R4133: - m[9,0,0] - m[9,0,3] - m[9,1,2] - m[9,1,3] - 50000 c[9,0,-2.0]
   >= -50003
 R4134: m[9,0,0] + 2 m[9,0,3] + m[9,1,3] - 50000 c[9,0,-2.0] >= -49998
 R4135: 3 m[9,0,0] + m[9,0,3] + 4 m[9,1,2] + 2 m[9,1,3] - 50000 c[9,0,-2.0]
   >= -49995
 R4136: c[9,0,-1.41504] = 0
 R4137: - 6649 m[9,0,0] + 3 m[9,0,1] - 7 m[9,0,2] + 4 m[9,0,3] - 5 m[9,1,0]
   - m[9,1,1] + 6639 m[9,1,2] - 6648 m[9,1,3] - 50000 c[9,0,-1.0]
   >= -56657
 R4138: 10 m[9,0,0] + 2 m[9,0,1] - 6641 m[9,0,2] - 6649 m[9,0,3] + m[9,1,0]
   + 3 m[9,1,1] - 6647 m[9,1,2] - 3 m[9,1,3] - 50000 c[9,0,-1.0] >= -63289
 R4139: 6 m[9,0,0] - m[9,0,1] - 2 m[9,0,2] + 4 m[9,0,3] - 2 m[9,1,1]
   + 5 m[9,1,2] + 4 m[9,1,3] - 50000 c[9,0,-1.0] >= -49999
 R4140: - 17 m[9,0,0] - 4 m[9,0,1] + 5 m[9,0,2] - m[9,0,3] + 4 m[9,1,0]
   + 2 m[9,1,1] + 13 m[9,1,2] - 10 m[9,1,3] - 50000 c[9,0,-1.0] >= -50015
 R4141: - 2 m[9,0,0] + 4 m[9,0,1] + 11 m[9,0,2] - 2 m[9,0,3] + 9 m[9,1,0]
   + 9 m[9,1,1] + 14 m[9,1,2] + 14 m[9,1,3] - 50000 c[9,0,-1.0] >= -49984
 R4142: 5 m[9,0,0] + 2 m[9,0,1] + 2 m[9,0,2] + 4 m[9,0,3] + 3 m[9,1,1]
   + m[9,1,3] - 50000 c[9,0,-1.0] >= -49995
 R4143: - 3324 m[9,0,0] + m[9,0,1] + 3324 m[9,0,3] + m[9,1,0]
   - 583 m[9,1,1] - 584 m[9,1,2] - 2740 m[9,1,3] - 50000 c[9,0,-1.0]
   >= -53907
 R4144: 15 m[9,0,0] - 2 m[9,0,1] + 3 m[9,0,2] - 10 m[9,0,3] - m[9,1,0]
   - 3 m[9,1,1] - 11 m[9,1,2] - 5 m[9,1,3] - 50000 c[9,0,-1.0] >= -50017
 R4145: - 5 m[9,0,0] - 2 m[9,0,1] + m[9,0,2] - 10 m[9,0,3] - 3 m[9,1,0]
   - 3 m[9,1,1] - 11 m[9,1,2] + 15 m[9,1,3] - 50000 c[9,0,-1.0] >= -50019
 R4146: c[9,1,0.0] + c[9,1,-3.0] + c[9,1,-2.0] + c[9,1,-1.41504]
   + c[9,1,-1.0] = 1
 R4147: c[9,1,0.0] = 0
 R4148: c[9,1,-3.0] = 0
 R4149: - 5 m[9,0,5] + 4 m[9,0,6] - m[9,1,4] + 4 m[9,1,5] - m[9,1,6]
   + m[9,1,7] - 50000 c[9,1,-2.0] >= -50002
 R4150: 7978 m[9,0,5] + m[9,0,6] + 7979 m[9,1,4] + m[9,1,5] - 7979 m[9,1,6]
   + 7979 m[9,1,7] - 50000 c[9,1,-2.0] >= -50000
 R4151: m[9,0,5] - m[9,1,4] + m[9,1,6] + m[9,1,7] - 50000 c[9,1,-2.0]
   >= -50000
 R4152: - 5 m[9,0,5] - 4 m[9,0,6] + m[9,1,4] - 4 m[9,1,5] + m[9,1,6]
   + m[9,1,7] - 50000 c[9,1,-2.0] >= -50008
 R4153: - m[9,0,5] - m[9,1,4] + m[9,1,6] - m[9,1,7] - 50000 c[9,1,-2.0]
   >= -50002
 R4154: 5 m[9,0,5] + 4 m[9,0,6] + m[9,1,4] - 4 m[9,1,5] + m[9,1,6]
   - m[9,1,7] - 50000 c[9,1,-2.0] >= -50000
 R4155: 5 m[9,0,5] - 4 m[9,0,6] - m[9,1,4] + 4 m[9,1,5] - m[9,1,6]
   - m[9,1,7] - 50000 c[9,1,-2.0] >= -50002
 R4156: - 5 m[9,0,5] + 4 m[9,0,6] + m[9,1,4] + 4 m[9,1,5] - m[9,1,6]
   - m[9,1,7] - 50000 c[9,1,-2.0] >= -50002
 R4157: c[9,1,-1.41504] = 0
 R4158: c[9,1,-1.0] = 0
 R4159: c[9,2,0.0] + c[9,2,-3.0] + c[9,2,-2.0] + c[9,2,-1.41504]
   + c[9,2,-1.0] = 1
 R4160: - m[9,0,8] - m[9,0,9] - m[9,0,10] - m[9,0,11] - m[9,1,8] - m[9,1,9]
   - m[9,1,10] - m[9,1,11] - 50000 c[9,2,0.0] >= -50000
 R4161: c[9,2,-3.0] = 0
 R4162: - m[9,0,8] - m[9,0,11] - m[9,1,10] - m[9,1,11] - 50000 c[9,2,-2.0]
   >= -50003
 R4163: m[9,0,8] + 2 m[9,0,11] + m[9,1,11] - 50000 c[9,2,-2.0] >= -49998
 R4164: 3 m[9,0,8] + m[9,0,11] + 4 m[9,1,10] + 2 m[9,1,11]
   - 50000 c[9,2,-2.0] >= -49995
 R4165: c[9,2,-1.41504] = 0
 R4166: - 6649 m[9,0,8] + 3 m[9,0,9] - 7 m[9,0,10] + 4 m[9,0,11]
   - 5 m[9,1,8] - m[9,1,9] + 6639 m[9,1,10] - 6648 m[9,1,11]
   - 50000 c[9,2,-1.0] >= -56657
 R4167: 10 m[9,0,8] + 2 m[9,0,9] - 6641 m[9,0,10] - 6649 m[9,0,11]
   + m[9,1,8] + 3 m[9,1,9] - 6647 m[9,1,10] - 3 m[9,1,11]
   - 50000 c[9,2,-1.0] >= -63289
 R4168: 6 m[9,0,8] - m[9,0,9] - 2 m[9,0,10] + 4 m[9,0,11] - 2 m[9,1,9]
   + 5 m[9,1,10] + 4 m[9,1,11] - 50000 c[9,2,-1.0] >= -49999
 R4169: - 17 m[9,0,8] - 4 m[9,0,9] + 5 m[9,0,10] - m[9,0,11] + 4 m[9,1,8]
   + 2 m[9,1,9] + 13 m[9,1,10] - 10 m[9,1,11] - 50000 c[9,2,-1.0]
   >= -50015
 R4170: - 2 m[9,0,8] + 4 m[9,0,9] + 11 m[9,0,10] - 2 m[9,0,11] + 9 m[9,1,8]
   + 9 m[9,1,9] + 14 m[9,1,10] + 14 m[9,1,11] - 50000 c[9,2,-1.0]
   >= -49984
 R4171: 5 m[9,0,8] + 2 m[9,0,9] + 2 m[9,0,10] + 4 m[9,0,11] + 3 m[9,1,9]
   + m[9,1,11] - 50000 c[9,2,-1.0] >= -49995
 R4172: - 3324 m[9,0,8] + m[9,0,9] + 3324 m[9,0,11] + m[9,1,8]
   - 583 m[9,1,9] - 584 m[9,1,10] - 2740 m[9,1,11] - 50000 c[9,2,-1.0]
   >= -53907
 R4173: 15 m[9,0,8] - 2 m[9,0,9] + 3 m[9,0,10] - 10 m[9,0,11] - m[9,1,8]
   - 3 m[9,1,9] - 11 m[9,1,10] - 5 m[9,1,11] - 50000 c[9,2,-1.0] >= -50017
 R4174: - 5 m[9,0,8] - 2 m[9,0,9] + m[9,0,10] - 10 m[9,0,11] - 3 m[9,1,8]
   - 3 m[9,1,9] - 11 m[9,1,10] + 15 m[9,1,11] - 50000 c[9,2,-1.0]
   >= -50019
 R4175: c[9,3,0.0] + c[9,3,-3.0] + c[9,3,-2.0] + c[9,3,-1.41504]
   + c[9,3,-1.0] = 1
 R4176: - m[9,0,12] - m[9,0,13] - m[9,0,14] - m[9,0,15] - m[9,1,12]
   - m[9,1,13] - m[9,1,14] - m[9,1,15] - 50000 c[9,3,0.0] >= -50000
 R4177: c[9,3,-3.0] = 0
 R4178: - m[9,0,12] - m[9,0,15] - m[9,1,14] - m[9,1,15] - 50000 c[9,3,-2.0]
   >= -50003
 R4179: m[9,0,12] + 2 m[9,0,15] + m[9,1,15] - 50000 c[9,3,-2.0] >= -49998
 R4180: 3 m[9,0,12] + m[9,0,15] + 4 m[9,1,14] + 2 m[9,1,15]
   - 50000 c[9,3,-2.0] >= -49995
 R4181: c[9,3,-1.41504] = 0
 R4182: - 6649 m[9,0,12] + 3 m[9,0,13] - 7 m[9,0,14] + 4 m[9,0,15]
   - 5 m[9,1,12] - m[9,1,13] + 6639 m[9,1,14] - 6648 m[9,1,15]
   - 50000 c[9,3,-1.0] >= -56657
 R4183: 10 m[9,0,12] + 2 m[9,0,13] - 6641 m[9,0,14] - 6649 m[9,0,15]
   + m[9,1,12] + 3 m[9,1,13] - 6647 m[9,1,14] - 3 m[9,1,15]
   - 50000 c[9,3,-1.0] >= -63289
 R4184: 6 m[9,0,12] - m[9,0,13] - 2 m[9,0,14] + 4 m[9,0,15] - 2 m[9,1,13]
   + 5 m[9,1,14] + 4 m[9,1,15] - 50000 c[9,3,-1.0] >= -49999
 R4185: - 17 m[9,0,12] - 4 m[9,0,13] + 5 m[9,0,14] - m[9,0,15]
   + 4 m[9,1,12] + 2 m[9,1,13] + 13 m[9,1,14] - 10 m[9,1,15]
   - 50000 c[9,3,-1.0] >= -50015
 R4186: - 2 m[9,0,12] + 4 m[9,0,13] + 11 m[9,0,14] - 2 m[9,0,15]
   + 9 m[9,1,12] + 9 m[9,1,13] + 14 m[9,1,14] + 14 m[9,1,15]
   - 50000 c[9,3,-1.0] >= -49984
 R4187: 5 m[9,0,12] + 2 m[9,0,13] + 2 m[9,0,14] + 4 m[9,0,15] + 3 m[9,1,13]
   + m[9,1,15] - 50000 c[9,3,-1.0] >= -49995
 R4188: - 3324 m[9,0,12] + m[9,0,13] + 3324 m[9,0,15] + m[9,1,12]
   - 583 m[9,1,13] - 584 m[9,1,14] - 2740 m[9,1,15] - 50000 c[9,3,-1.0]
   >= -53907
 R4189: 15 m[9,0,12] - 2 m[9,0,13] + 3 m[9,0,14] - 10 m[9,0,15] - m[9,1,12]
   - 3 m[9,1,13] - 11 m[9,1,14] - 5 m[9,1,15] - 50000 c[9,3,-1.0]
   >= -50017
 R4190: - 5 m[9,0,12] - 2 m[9,0,13] + m[9,0,14] - 10 m[9,0,15]
   - 3 m[9,1,12] - 3 m[9,1,13] - 11 m[9,1,14] + 15 m[9,1,15]
   - 50000 c[9,3,-1.0] >= -50019
 R4191: c[9,4,0.0] + c[9,4,-3.0] + c[9,4,-2.0] + c[9,4,-1.41504]
   + c[9,4,-1.0] = 1
 R4192: - m[9,0,16] - m[9,0,17] - m[9,0,18] - m[9,0,19] - m[9,1,16]
   - m[9,1,17] - m[9,1,18] - m[9,1,19] - 50000 c[9,4,0.0] >= -50000
 R4193: c[9,4,-3.0] = 0
 R4194: - m[9,0,16] - m[9,0,19] - m[9,1,18] - m[9,1,19] - 50000 c[9,4,-2.0]
   >= -50003
 R4195: m[9,0,16] + 2 m[9,0,19] + m[9,1,19] - 50000 c[9,4,-2.0] >= -49998
 R4196: 3 m[9,0,16] + m[9,0,19] + 4 m[9,1,18] + 2 m[9,1,19]
   - 50000 c[9,4,-2.0] >= -49995
 R4197: c[9,4,-1.41504] = 0
 R4198: - 6649 m[9,0,16] + 3 m[9,0,17] - 7 m[9,0,18] + 4 m[9,0,19]
   - 5 m[9,1,16] - m[9,1,17] + 6639 m[9,1,18] - 6648 m[9,1,19]
   - 50000 c[9,4,-1.0] >= -56657
 R4199: 10 m[9,0,16] + 2 m[9,0,17] - 6641 m[9,0,18] - 6649 m[9,0,19]
   + m[9,1,16] + 3 m[9,1,17] - 6647 m[9,1,18] - 3 m[9,1,19]
   - 50000 c[9,4,-1.0] >= -63289
 R4200: 6 m[9,0,16] - m[9,0,17] - 2 m[9,0,18] + 4 m[9,0,19] - 2 m[9,1,17]
   + 5 m[9,1,18] + 4 m[9,1,19] - 50000 c[9,4,-1.0] >= -49999
 R4201: - 17 m[9,0,16] - 4 m[9,0,17] + 5 m[9,0,18] - m[9,0,19]
   + 4 m[9,1,16] + 2 m[9,1,17] + 13 m[9,1,18] - 10 m[9,1,19]
   - 50000 c[9,4,-1.0] >= -50015
 R4202: - 2 m[9,0,16] + 4 m[9,0,17] + 11 m[9,0,18] - 2 m[9,0,19]
   + 9 m[9,1,16] + 9 m[9,1,17] + 14 m[9,1,18] + 14 m[9,1,19]
   - 50000 c[9,4,-1.0] >= -49984
 R4203: 5 m[9,0,16] + 2 m[9,0,17] + 2 m[9,0,18] + 4 m[9,0,19] + 3 m[9,1,17]
   + m[9,1,19] - 50000 c[9,4,-1.0] >= -49995
 R4204: - 3324 m[9,0,16] + m[9,0,17] + 3324 m[9,0,19] + m[9,1,16]
   - 583 m[9,1,17] - 584 m[9,1,18] - 2740 m[9,1,19] - 50000 c[9,4,-1.0]
   >= -53907
 R4205: 15 m[9,0,16] - 2 m[9,0,17] + 3 m[9,0,18] - 10 m[9,0,19] - m[9,1,16]
   - 3 m[9,1,17] - 11 m[9,1,18] - 5 m[9,1,19] - 50000 c[9,4,-1.0]
   >= -50017
 R4206: - 5 m[9,0,16] - 2 m[9,0,17] + m[9,0,18] - 10 m[9,0,19]
   - 3 m[9,1,16] - 3 m[9,1,17] - 11 m[9,1,18] + 15 m[9,1,19]
   - 50000 c[9,4,-1.0] >= -50019
 R4207: c[9,5,0.0] + c[9,5,-3.0] + c[9,5,-2.0] + c[9,5,-1.41504]
   + c[9,5,-1.0] = 1
 R4208: - m[9,0,20] - m[9,0,21] - m[9,0,22] - m[9,0,23] - m[9,1,20]
   - m[9,1,21] - m[9,1,22] - m[9,1,23] - 50000 c[9,5,0.0] >= -50000
 R4209: c[9,5,-3.0] = 0
 R4210: - m[9,0,20] - m[9,0,23] - m[9,1,22] - m[9,1,23] - 50000 c[9,5,-2.0]
   >= -50003
 R4211: m[9,0,20] + 2 m[9,0,23] + m[9,1,23] - 50000 c[9,5,-2.0] >= -49998
 R4212: 3 m[9,0,20] + m[9,0,23] + 4 m[9,1,22] + 2 m[9,1,23]
   - 50000 c[9,5,-2.0] >= -49995
 R4213: c[9,5,-1.41504] = 0
 R4214: - 6649 m[9,0,20] + 3 m[9,0,21] - 7 m[9,0,22] + 4 m[9,0,23]
   - 5 m[9,1,20] - m[9,1,21] + 6639 m[9,1,22] - 6648 m[9,1,23]
   - 50000 c[9,5,-1.0] >= -56657
 R4215: 10 m[9,0,20] + 2 m[9,0,21] - 6641 m[9,0,22] - 6649 m[9,0,23]
   + m[9,1,20] + 3 m[9,1,21] - 6647 m[9,1,22] - 3 m[9,1,23]
   - 50000 c[9,5,-1.0] >= -63289
 R4216: 6 m[9,0,20] - m[9,0,21] - 2 m[9,0,22] + 4 m[9,0,23] - 2 m[9,1,21]
   + 5 m[9,1,22] + 4 m[9,1,23] - 50000 c[9,5,-1.0] >= -49999
 R4217: - 17 m[9,0,20] - 4 m[9,0,21] + 5 m[9,0,22] - m[9,0,23]
   + 4 m[9,1,20] + 2 m[9,1,21] + 13 m[9,1,22] - 10 m[9,1,23]
   - 50000 c[9,5,-1.0] >= -50015
 R4218: - 2 m[9,0,20] + 4 m[9,0,21] + 11 m[9,0,22] - 2 m[9,0,23]
   + 9 m[9,1,20] + 9 m[9,1,21] + 14 m[9,1,22] + 14 m[9,1,23]
   - 50000 c[9,5,-1.0] >= -49984
 R4219: 5 m[9,0,20] + 2 m[9,0,21] + 2 m[9,0,22] + 4 m[9,0,23] + 3 m[9,1,21]
   + m[9,1,23] - 50000 c[9,5,-1.0] >= -49995
 R4220: - 3324 m[9,0,20] + m[9,0,21] + 3324 m[9,0,23] + m[9,1,20]
   - 583 m[9,1,21] - 584 m[9,1,22] - 2740 m[9,1,23] - 50000 c[9,5,-1.0]
   >= -53907
 R4221: 15 m[9,0,20] - 2 m[9,0,21] + 3 m[9,0,22] - 10 m[9,0,23] - m[9,1,20]
   - 3 m[9,1,21] - 11 m[9,1,22] - 5 m[9,1,23] - 50000 c[9,5,-1.0]
   >= -50017
 R4222: - 5 m[9,0,20] - 2 m[9,0,21] + m[9,0,22] - 10 m[9,0,23]
   - 3 m[9,1,20] - 3 m[9,1,21] - 11 m[9,1,22] + 15 m[9,1,23]
   - 50000 c[9,5,-1.0] >= -50019
 R4223: c[9,6,0.0] + c[9,6,-3.0] + c[9,6,-2.0] + c[9,6,-1.41504]
   + c[9,6,-1.0] = 1
 R4224: c[9,6,0.0] = 0
 R4225: - m[9,0,25] - m[9,1,26] - m[9,1,27] - 50000 c[9,6,-3.0] >= -50002
 R4226: m[9,0,25] + m[9,1,26] - m[9,1,27] - 50000 c[9,6,-3.0] >= -50000
 R4227: m[9,0,25] - m[9,1,26] + m[9,1,27] - 50000 c[9,6,-3.0] >= -50000
 R4228: - m[9,0,25] + m[9,1,26] + m[9,1,27] - 50000 c[9,6,-3.0] >= -50000
 R4229: c[9,6,-2.0] = 0
 R4230: c[9,6,-1.41504] = 0
 R4231: c[9,6,-1.0] = 0
 R4232: c[9,7,0.0] + c[9,7,-3.0] + c[9,7,-2.0] + c[9,7,-1.41504]
   + c[9,7,-1.0] = 1
 R4233: - m[9,0,28] - m[9,0,29] - m[9,0,30] - m[9,0,31] - m[9,1,28]
   - m[9,1,29] - m[9,1,30] - m[9,1,31] - 50000 c[9,7,0.0] >= -50000
 R4234: c[9,7,-3.0] = 0
 R4235: - m[9,0,28] - m[9,0,31] - m[9,1,30] - m[9,1,31] - 50000 c[9,7,-2.0]
   >= -50003
 R4236: m[9,0,28] + 2 m[9,0,31] + m[9,1,31] - 50000 c[9,7,-2.0] >= -49998
 R4237: 3 m[9,0,28] + m[9,0,31] + 4 m[9,1,30] + 2 m[9,1,31]
   - 50000 c[9,7,-2.0] >= -49995
 R4238: c[9,7,-1.41504] = 0
 R4239: - 6649 m[9,0,28] + 3 m[9,0,29] - 7 m[9,0,30] + 4 m[9,0,31]
   - 5 m[9,1,28] - m[9,1,29] + 6639 m[9,1,30] - 6648 m[9,1,31]
   - 50000 c[9,7,-1.0] >= -56657
 R4240: 10 m[9,0,28] + 2 m[9,0,29] - 6641 m[9,0,30] - 6649 m[9,0,31]
   + m[9,1,28] + 3 m[9,1,29] - 6647 m[9,1,30] - 3 m[9,1,31]
   - 50000 c[9,7,-1.0] >= -63289
 R4241: 6 m[9,0,28] - m[9,0,29] - 2 m[9,0,30] + 4 m[9,0,31] - 2 m[9,1,29]
   + 5 m[9,1,30] + 4 m[9,1,31] - 50000 c[9,7,-1.0] >= -49999
 R4242: - 17 m[9,0,28] - 4 m[9,0,29] + 5 m[9,0,30] - m[9,0,31]
   + 4 m[9,1,28] + 2 m[9,1,29] + 13 m[9,1,30] - 10 m[9,1,31]
   - 50000 c[9,7,-1.0] >= -50015
 R4243: - 2 m[9,0,28] + 4 m[9,0,29] + 11 m[9,0,30] - 2 m[9,0,31]
   + 9 m[9,1,28] + 9 m[9,1,29] + 14 m[9,1,30] + 14 m[9,1,31]
   - 50000 c[9,7,-1.0] >= -49984
 R4244: 5 m[9,0,28] + 2 m[9,0,29] + 2 m[9,0,30] + 4 m[9,0,31] + 3 m[9,1,29]
   + m[9,1,31] - 50000 c[9,7,-1.0] >= -49995
 R4245: - 3324 m[9,0,28] + m[9,0,29] + 3324 m[9,0,31] + m[9,1,28]
   - 583 m[9,1,29] - 584 m[9,1,30] - 2740 m[9,1,31] - 50000 c[9,7,-1.0]
   >= -53907
 R4246: 15 m[9,0,28] - 2 m[9,0,29] + 3 m[9,0,30] - 10 m[9,0,31] - m[9,1,28]
   - 3 m[9,1,29] - 11 m[9,1,30] - 5 m[9,1,31] - 50000 c[9,7,-1.0]
   >= -50017
 R4247: - 5 m[9,0,28] - 2 m[9,0,29] + m[9,0,30] - 10 m[9,0,31]
   - 3 m[9,1,28] - 3 m[9,1,29] - 11 m[9,1,30] + 15 m[9,1,31]
   - 50000 c[9,7,-1.0] >= -50019
 R4248: c[9,8,0.0] + c[9,8,-3.0] + c[9,8,-2.0] + c[9,8,-1.41504]
   + c[9,8,-1.0] = 1
 R4249: - m[9,0,32] - m[9,0,33] - m[9,0,34] - m[9,0,35] - m[9,1,32]
   - m[9,1,33] - m[9,1,34] - m[9,1,35] - 50000 c[9,8,0.0] >= -50000
 R4250: c[9,8,-3.0] = 0
 R4251: - m[9,0,32] - m[9,0,35] - m[9,1,34] - m[9,1,35] - 50000 c[9,8,-2.0]
   >= -50003
 R4252: m[9,0,32] + 2 m[9,0,35] + m[9,1,35] - 50000 c[9,8,-2.0] >= -49998
 R4253: 3 m[9,0,32] + m[9,0,35] + 4 m[9,1,34] + 2 m[9,1,35]
   - 50000 c[9,8,-2.0] >= -49995
 R4254: c[9,8,-1.41504] = 0
 R4255: - 6649 m[9,0,32] + 3 m[9,0,33] - 7 m[9,0,34] + 4 m[9,0,35]
   - 5 m[9,1,32] - m[9,1,33] + 6639 m[9,1,34] - 6648 m[9,1,35]
   - 50000 c[9,8,-1.0] >= -56657
 R4256: 10 m[9,0,32] + 2 m[9,0,33] - 6641 m[9,0,34] - 6649 m[9,0,35]
   + m[9,1,32] + 3 m[9,1,33] - 6647 m[9,1,34] - 3 m[9,1,35]
   - 50000 c[9,8,-1.0] >= -63289
 R4257: 6 m[9,0,32] - m[9,0,33] - 2 m[9,0,34] + 4 m[9,0,35] - 2 m[9,1,33]
   + 5 m[9,1,34] + 4 m[9,1,35] - 50000 c[9,8,-1.0] >= -49999
 R4258: - 17 m[9,0,32] - 4 m[9,0,33] + 5 m[9,0,34] - m[9,0,35]
   + 4 m[9,1,32] + 2 m[9,1,33] + 13 m[9,1,34] - 10 m[9,1,35]
   - 50000 c[9,8,-1.0] >= -50015
 R4259: - 2 m[9,0,32] + 4 m[9,0,33] + 11 m[9,0,34] - 2 m[9,0,35]
   + 9 m[9,1,32] + 9 m[9,1,33] + 14 m[9,1,34] + 14 m[9,1,35]
   - 50000 c[9,8,-1.0] >= -49984
 R4260: 5 m[9,0,32] + 2 m[9,0,33] + 2 m[9,0,34] + 4 m[9,0,35] + 3 m[9,1,33]
   + m[9,1,35] - 50000 c[9,8,-1.0] >= -49995
 R4261: - 3324 m[9,0,32] + m[9,0,33] + 3324 m[9,0,35] + m[9,1,32]
   - 583 m[9,1,33] - 584 m[9,1,34] - 2740 m[9,1,35] - 50000 c[9,8,-1.0]
   >= -53907
 R4262: 15 m[9,0,32] - 2 m[9,0,33] + 3 m[9,0,34] - 10 m[9,0,35] - m[9,1,32]
   - 3 m[9,1,33] - 11 m[9,1,34] - 5 m[9,1,35] - 50000 c[9,8,-1.0]
   >= -50017
 R4263: - 5 m[9,0,32] - 2 m[9,0,33] + m[9,0,34] - 10 m[9,0,35]
   - 3 m[9,1,32] - 3 m[9,1,33] - 11 m[9,1,34] + 15 m[9,1,35]
   - 50000 c[9,8,-1.0] >= -50019
 R4264: c[9,9,0.0] + c[9,9,-3.0] + c[9,9,-2.0] + c[9,9,-1.41504]
   + c[9,9,-1.0] = 1
 R4265: - m[9,0,36] - m[9,0,37] - m[9,0,38] - m[9,0,39] - m[9,1,36]
   - m[9,1,37] - m[9,1,38] - m[9,1,39] - 50000 c[9,9,0.0] >= -50000
 R4266: c[9,9,-3.0] = 0
 R4267: - m[9,0,36] - m[9,0,39] - m[9,1,38] - m[9,1,39] - 50000 c[9,9,-2.0]
   >= -50003
 R4268: m[9,0,36] + 2 m[9,0,39] + m[9,1,39] - 50000 c[9,9,-2.0] >= -49998
 R4269: 3 m[9,0,36] + m[9,0,39] + 4 m[9,1,38] + 2 m[9,1,39]
   - 50000 c[9,9,-2.0] >= -49995
 R4270: c[9,9,-1.41504] = 0
 R4271: - 6649 m[9,0,36] + 3 m[9,0,37] - 7 m[9,0,38] + 4 m[9,0,39]
   - 5 m[9,1,36] - m[9,1,37] + 6639 m[9,1,38] - 6648 m[9,1,39]
   - 50000 c[9,9,-1.0] >= -56657
 R4272: 10 m[9,0,36] + 2 m[9,0,37] - 6641 m[9,0,38] - 6649 m[9,0,39]
   + m[9,1,36] + 3 m[9,1,37] - 6647 m[9,1,38] - 3 m[9,1,39]
   - 50000 c[9,9,-1.0] >= -63289
 R4273: 6 m[9,0,36] - m[9,0,37] - 2 m[9,0,38] + 4 m[9,0,39] - 2 m[9,1,37]
   + 5 m[9,1,38] + 4 m[9,1,39] - 50000 c[9,9,-1.0] >= -49999
 R4274: - 17 m[9,0,36] - 4 m[9,0,37] + 5 m[9,0,38] - m[9,0,39]
   + 4 m[9,1,36] + 2 m[9,1,37] + 13 m[9,1,38] - 10 m[9,1,39]
   - 50000 c[9,9,-1.0] >= -50015
 R4275: - 2 m[9,0,36] + 4 m[9,0,37] + 11 m[9,0,38] - 2 m[9,0,39]
   + 9 m[9,1,36] + 9 m[9,1,37] + 14 m[9,1,38] + 14 m[9,1,39]
   - 50000 c[9,9,-1.0] >= -49984
 R4276: 5 m[9,0,36] + 2 m[9,0,37] + 2 m[9,0,38] + 4 m[9,0,39] + 3 m[9,1,37]
   + m[9,1,39] - 50000 c[9,9,-1.0] >= -49995
 R4277: - 3324 m[9,0,36] + m[9,0,37] + 3324 m[9,0,39] + m[9,1,36]
   - 583 m[9,1,37] - 584 m[9,1,38] - 2740 m[9,1,39] - 50000 c[9,9,-1.0]
   >= -53907
 R4278: 15 m[9,0,36] - 2 m[9,0,37] + 3 m[9,0,38] - 10 m[9,0,39] - m[9,1,36]
   - 3 m[9,1,37] - 11 m[9,1,38] - 5 m[9,1,39] - 50000 c[9,9,-1.0]
   >= -50017
 R4279: - 5 m[9,0,36] - 2 m[9,0,37] + m[9,0,38] - 10 m[9,0,39]
   - 3 m[9,1,36] - 3 m[9,1,37] - 11 m[9,1,38] + 15 m[9,1,39]
   - 50000 c[9,9,-1.0] >= -50019
 R4280: c[9,10,0.0] + c[9,10,-3.0] + c[9,10,-2.0] + c[9,10,-1.41504]
   + c[9,10,-1.0] = 1
 R4281: - m[9,0,40] - m[9,0,41] - m[9,0,42] - m[9,0,43] - m[9,1,40]
   - m[9,1,41] - m[9,1,42] - m[9,1,43] - 50000 c[9,10,0.0] >= -50000
 R4282: c[9,10,-3.0] = 0
 R4283: - m[9,0,40] - m[9,0,43] - m[9,1,42] - m[9,1,43]
   - 50000 c[9,10,-2.0] >= -50003
 R4284: m[9,0,40] + 2 m[9,0,43] + m[9,1,43] - 50000 c[9,10,-2.0] >= -49998
 R4285: 3 m[9,0,40] + m[9,0,43] + 4 m[9,1,42] + 2 m[9,1,43]
   - 50000 c[9,10,-2.0] >= -49995
 R4286: c[9,10,-1.41504] = 0
 R4287: - 6649 m[9,0,40] + 3 m[9,0,41] - 7 m[9,0,42] + 4 m[9,0,43]
   - 5 m[9,1,40] - m[9,1,41] + 6639 m[9,1,42] - 6648 m[9,1,43]
   - 50000 c[9,10,-1.0] >= -56657
 R4288: 10 m[9,0,40] + 2 m[9,0,41] - 6641 m[9,0,42] - 6649 m[9,0,43]
   + m[9,1,40] + 3 m[9,1,41] - 6647 m[9,1,42] - 3 m[9,1,43]
   - 50000 c[9,10,-1.0] >= -63289
 R4289: 6 m[9,0,40] - m[9,0,41] - 2 m[9,0,42] + 4 m[9,0,43] - 2 m[9,1,41]
   + 5 m[9,1,42] + 4 m[9,1,43] - 50000 c[9,10,-1.0] >= -49999
 R4290: - 17 m[9,0,40] - 4 m[9,0,41] + 5 m[9,0,42] - m[9,0,43]
   + 4 m[9,1,40] + 2 m[9,1,41] + 13 m[9,1,42] - 10 m[9,1,43]
   - 50000 c[9,10,-1.0] >= -50015
 R4291: - 2 m[9,0,40] + 4 m[9,0,41] + 11 m[9,0,42] - 2 m[9,0,43]
   + 9 m[9,1,40] + 9 m[9,1,41] + 14 m[9,1,42] + 14 m[9,1,43]
   - 50000 c[9,10,-1.0] >= -49984
 R4292: 5 m[9,0,40] + 2 m[9,0,41] + 2 m[9,0,42] + 4 m[9,0,43] + 3 m[9,1,41]
   + m[9,1,43] - 50000 c[9,10,-1.0] >= -49995
 R4293: - 3324 m[9,0,40] + m[9,0,41] + 3324 m[9,0,43] + m[9,1,40]
   - 583 m[9,1,41] - 584 m[9,1,42] - 2740 m[9,1,43] - 50000 c[9,10,-1.0]
   >= -53907
 R4294: 15 m[9,0,40] - 2 m[9,0,41] + 3 m[9,0,42] - 10 m[9,0,43] - m[9,1,40]
   - 3 m[9,1,41] - 11 m[9,1,42] - 5 m[9,1,43] - 50000 c[9,10,-1.0]
   >= -50017
 R4295: - 5 m[9,0,40] - 2 m[9,0,41] + m[9,0,42] - 10 m[9,0,43]
   - 3 m[9,1,40] - 3 m[9,1,41] - 11 m[9,1,42] + 15 m[9,1,43]
   - 50000 c[9,10,-1.0] >= -50019
 R4296: c[9,11,0.0] + c[9,11,-3.0] + c[9,11,-2.0] + c[9,11,-1.41504]
   + c[9,11,-1.0] = 1
 R4297: - m[9,0,44] - m[9,0,45] - m[9,0,46] - m[9,0,47] - m[9,1,44]
   - m[9,1,45] - m[9,1,46] - m[9,1,47] - 50000 c[9,11,0.0] >= -50000
 R4298: c[9,11,-3.0] = 0
 R4299: - m[9,0,44] - m[9,0,47] - m[9,1,46] - m[9,1,47]
   - 50000 c[9,11,-2.0] >= -50003
 R4300: m[9,0,44] + 2 m[9,0,47] + m[9,1,47] - 50000 c[9,11,-2.0] >= -49998
 R4301: 3 m[9,0,44] + m[9,0,47] + 4 m[9,1,46] + 2 m[9,1,47]
   - 50000 c[9,11,-2.0] >= -49995
 R4302: c[9,11,-1.41504] = 0
 R4303: - 6649 m[9,0,44] + 3 m[9,0,45] - 7 m[9,0,46] + 4 m[9,0,47]
   - 5 m[9,1,44] - m[9,1,45] + 6639 m[9,1,46] - 6648 m[9,1,47]
   - 50000 c[9,11,-1.0] >= -56657
 R4304: 10 m[9,0,44] + 2 m[9,0,45] - 6641 m[9,0,46] - 6649 m[9,0,47]
   + m[9,1,44] + 3 m[9,1,45] - 6647 m[9,1,46] - 3 m[9,1,47]
   - 50000 c[9,11,-1.0] >= -63289
 R4305: 6 m[9,0,44] - m[9,0,45] - 2 m[9,0,46] + 4 m[9,0,47] - 2 m[9,1,45]
   + 5 m[9,1,46] + 4 m[9,1,47] - 50000 c[9,11,-1.0] >= -49999
 R4306: - 17 m[9,0,44] - 4 m[9,0,45] + 5 m[9,0,46] - m[9,0,47]
   + 4 m[9,1,44] + 2 m[9,1,45] + 13 m[9,1,46] - 10 m[9,1,47]
   - 50000 c[9,11,-1.0] >= -50015
 R4307: - 2 m[9,0,44] + 4 m[9,0,45] + 11 m[9,0,46] - 2 m[9,0,47]
   + 9 m[9,1,44] + 9 m[9,1,45] + 14 m[9,1,46] + 14 m[9,1,47]
   - 50000 c[9,11,-1.0] >= -49984
 R4308: 5 m[9,0,44] + 2 m[9,0,45] + 2 m[9,0,46] + 4 m[9,0,47] + 3 m[9,1,45]
   + m[9,1,47] - 50000 c[9,11,-1.0] >= -49995
 R4309: - 3324 m[9,0,44] + m[9,0,45] + 3324 m[9,0,47] + m[9,1,44]
   - 583 m[9,1,45] - 584 m[9,1,46] - 2740 m[9,1,47] - 50000 c[9,11,-1.0]
   >= -53907
 R4310: 15 m[9,0,44] - 2 m[9,0,45] + 3 m[9,0,46] - 10 m[9,0,47] - m[9,1,44]
   - 3 m[9,1,45] - 11 m[9,1,46] - 5 m[9,1,47] - 50000 c[9,11,-1.0]
   >= -50017
 R4311: - 5 m[9,0,44] - 2 m[9,0,45] + m[9,0,46] - 10 m[9,0,47]
   - 3 m[9,1,44] - 3 m[9,1,45] - 11 m[9,1,46] + 15 m[9,1,47]
   - 50000 c[9,11,-1.0] >= -50019
 R4312: c[9,12,0.0] + c[9,12,-3.0] + c[9,12,-2.0] + c[9,12,-1.41504]
   + c[9,12,-1.0] = 1
 R4313: - m[9,0,48] - m[9,0,49] - m[9,0,50] - m[9,0,51] - m[9,1,48]
   - m[9,1,49] - m[9,1,50] - m[9,1,51] - 50000 c[9,12,0.0] >= -50000
 R4314: c[9,12,-3.0] = 0
 R4315: - m[9,0,48] - m[9,0,51] - m[9,1,50] - m[9,1,51]
   - 50000 c[9,12,-2.0] >= -50003
 R4316: m[9,0,48] + 2 m[9,0,51] + m[9,1,51] - 50000 c[9,12,-2.0] >= -49998
 R4317: 3 m[9,0,48] + m[9,0,51] + 4 m[9,1,50] + 2 m[9,1,51]
   - 50000 c[9,12,-2.0] >= -49995
 R4318: c[9,12,-1.41504] = 0
 R4319: - 6649 m[9,0,48] + 3 m[9,0,49] - 7 m[9,0,50] + 4 m[9,0,51]
   - 5 m[9,1,48] - m[9,1,49] + 6639 m[9,1,50] - 6648 m[9,1,51]
   - 50000 c[9,12,-1.0] >= -56657
 R4320: 10 m[9,0,48] + 2 m[9,0,49] - 6641 m[9,0,50] - 6649 m[9,0,51]
   + m[9,1,48] + 3 m[9,1,49] - 6647 m[9,1,50] - 3 m[9,1,51]
   - 50000 c[9,12,-1.0] >= -63289
 R4321: 6 m[9,0,48] - m[9,0,49] - 2 m[9,0,50] + 4 m[9,0,51] - 2 m[9,1,49]
   + 5 m[9,1,50] + 4 m[9,1,51] - 50000 c[9,12,-1.0] >= -49999
 R4322: - 17 m[9,0,48] - 4 m[9,0,49] + 5 m[9,0,50] - m[9,0,51]
   + 4 m[9,1,48] + 2 m[9,1,49] + 13 m[9,1,50] - 10 m[9,1,51]
   - 50000 c[9,12,-1.0] >= -50015
 R4323: - 2 m[9,0,48] + 4 m[9,0,49] + 11 m[9,0,50] - 2 m[9,0,51]
   + 9 m[9,1,48] + 9 m[9,1,49] + 14 m[9,1,50] + 14 m[9,1,51]
   - 50000 c[9,12,-1.0] >= -49984
 R4324: 5 m[9,0,48] + 2 m[9,0,49] + 2 m[9,0,50] + 4 m[9,0,51] + 3 m[9,1,49]
   + m[9,1,51] - 50000 c[9,12,-1.0] >= -49995
 R4325: - 3324 m[9,0,48] + m[9,0,49] + 3324 m[9,0,51] + m[9,1,48]
   - 583 m[9,1,49] - 584 m[9,1,50] - 2740 m[9,1,51] - 50000 c[9,12,-1.0]
   >= -53907
 R4326: 15 m[9,0,48] - 2 m[9,0,49] + 3 m[9,0,50] - 10 m[9,0,51] - m[9,1,48]
   - 3 m[9,1,49] - 11 m[9,1,50] - 5 m[9,1,51] - 50000 c[9,12,-1.0]
   >= -50017
 R4327: - 5 m[9,0,48] - 2 m[9,0,49] + m[9,0,50] - 10 m[9,0,51]
   - 3 m[9,1,48] - 3 m[9,1,49] - 11 m[9,1,50] + 15 m[9,1,51]
   - 50000 c[9,12,-1.0] >= -50019
 R4328: c[9,13,0.0] + c[9,13,-3.0] + c[9,13,-2.0] + c[9,13,-1.41504]
   + c[9,13,-1.0] = 1
 R4329: - m[9,0,52] - m[9,0,53] - m[9,0,54] - m[9,0,55] - m[9,1,52]
   - m[9,1,53] - m[9,1,54] - m[9,1,55] - 50000 c[9,13,0.0] >= -50000
 R4330: c[9,13,-3.0] = 0
 R4331: - m[9,0,52] - m[9,0,55] - m[9,1,54] - m[9,1,55]
   - 50000 c[9,13,-2.0] >= -50003
 R4332: m[9,0,52] + 2 m[9,0,55] + m[9,1,55] - 50000 c[9,13,-2.0] >= -49998
 R4333: 3 m[9,0,52] + m[9,0,55] + 4 m[9,1,54] + 2 m[9,1,55]
   - 50000 c[9,13,-2.0] >= -49995
 R4334: c[9,13,-1.41504] = 0
 R4335: - 6649 m[9,0,52] + 3 m[9,0,53] - 7 m[9,0,54] + 4 m[9,0,55]
   - 5 m[9,1,52] - m[9,1,53] + 6639 m[9,1,54] - 6648 m[9,1,55]
   - 50000 c[9,13,-1.0] >= -56657
 R4336: 10 m[9,0,52] + 2 m[9,0,53] - 6641 m[9,0,54] - 6649 m[9,0,55]
   + m[9,1,52] + 3 m[9,1,53] - 6647 m[9,1,54] - 3 m[9,1,55]
   - 50000 c[9,13,-1.0] >= -63289
 R4337: 6 m[9,0,52] - m[9,0,53] - 2 m[9,0,54] + 4 m[9,0,55] - 2 m[9,1,53]
   + 5 m[9,1,54] + 4 m[9,1,55] - 50000 c[9,13,-1.0] >= -49999
 R4338: - 17 m[9,0,52] - 4 m[9,0,53] + 5 m[9,0,54] - m[9,0,55]
   + 4 m[9,1,52] + 2 m[9,1,53] + 13 m[9,1,54] - 10 m[9,1,55]
   - 50000 c[9,13,-1.0] >= -50015
 R4339: - 2 m[9,0,52] + 4 m[9,0,53] + 11 m[9,0,54] - 2 m[9,0,55]
   + 9 m[9,1,52] + 9 m[9,1,53] + 14 m[9,1,54] + 14 m[9,1,55]
   - 50000 c[9,13,-1.0] >= -49984
 R4340: 5 m[9,0,52] + 2 m[9,0,53] + 2 m[9,0,54] + 4 m[9,0,55] + 3 m[9,1,53]
   + m[9,1,55] - 50000 c[9,13,-1.0] >= -49995
 R4341: - 3324 m[9,0,52] + m[9,0,53] + 3324 m[9,0,55] + m[9,1,52]
   - 583 m[9,1,53] - 584 m[9,1,54] - 2740 m[9,1,55] - 50000 c[9,13,-1.0]
   >= -53907
 R4342: 15 m[9,0,52] - 2 m[9,0,53] + 3 m[9,0,54] - 10 m[9,0,55] - m[9,1,52]
   - 3 m[9,1,53] - 11 m[9,1,54] - 5 m[9,1,55] - 50000 c[9,13,-1.0]
   >= -50017
 R4343: - 5 m[9,0,52] - 2 m[9,0,53] + m[9,0,54] - 10 m[9,0,55]
   - 3 m[9,1,52] - 3 m[9,1,53] - 11 m[9,1,54] + 15 m[9,1,55]
   - 50000 c[9,13,-1.0] >= -50019
 R4344: c[9,14,0.0] + c[9,14,-3.0] + c[9,14,-2.0] + c[9,14,-1.41504]
   + c[9,14,-1.0] = 1
 R4345: - m[9,0,56] - m[9,0,57] - m[9,0,58] - m[9,0,59] - m[9,1,56]
   - m[9,1,57] - m[9,1,58] - m[9,1,59] - 50000 c[9,14,0.0] >= -50000
 R4346: c[9,14,-3.0] = 0
 R4347: - m[9,0,56] - m[9,0,59] - m[9,1,58] - m[9,1,59]
   - 50000 c[9,14,-2.0] >= -50003
 R4348: m[9,0,56] + 2 m[9,0,59] + m[9,1,59] - 50000 c[9,14,-2.0] >= -49998
 R4349: 3 m[9,0,56] + m[9,0,59] + 4 m[9,1,58] + 2 m[9,1,59]
   - 50000 c[9,14,-2.0] >= -49995
 R4350: c[9,14,-1.41504] = 0
 R4351: - 6649 m[9,0,56] + 3 m[9,0,57] - 7 m[9,0,58] + 4 m[9,0,59]
   - 5 m[9,1,56] - m[9,1,57] + 6639 m[9,1,58] - 6648 m[9,1,59]
   - 50000 c[9,14,-1.0] >= -56657
 R4352: 10 m[9,0,56] + 2 m[9,0,57] - 6641 m[9,0,58] - 6649 m[9,0,59]
   + m[9,1,56] + 3 m[9,1,57] - 6647 m[9,1,58] - 3 m[9,1,59]
   - 50000 c[9,14,-1.0] >= -63289
 R4353: 6 m[9,0,56] - m[9,0,57] - 2 m[9,0,58] + 4 m[9,0,59] - 2 m[9,1,57]
   + 5 m[9,1,58] + 4 m[9,1,59] - 50000 c[9,14,-1.0] >= -49999
 R4354: - 17 m[9,0,56] - 4 m[9,0,57] + 5 m[9,0,58] - m[9,0,59]
   + 4 m[9,1,56] + 2 m[9,1,57] + 13 m[9,1,58] - 10 m[9,1,59]
   - 50000 c[9,14,-1.0] >= -50015
 R4355: - 2 m[9,0,56] + 4 m[9,0,57] + 11 m[9,0,58] - 2 m[9,0,59]
   + 9 m[9,1,56] + 9 m[9,1,57] + 14 m[9,1,58] + 14 m[9,1,59]
   - 50000 c[9,14,-1.0] >= -49984
 R4356: 5 m[9,0,56] + 2 m[9,0,57] + 2 m[9,0,58] + 4 m[9,0,59] + 3 m[9,1,57]
   + m[9,1,59] - 50000 c[9,14,-1.0] >= -49995
 R4357: - 3324 m[9,0,56] + m[9,0,57] + 3324 m[9,0,59] + m[9,1,56]
   - 583 m[9,1,57] - 584 m[9,1,58] - 2740 m[9,1,59] - 50000 c[9,14,-1.0]
   >= -53907
 R4358: 15 m[9,0,56] - 2 m[9,0,57] + 3 m[9,0,58] - 10 m[9,0,59] - m[9,1,56]
   - 3 m[9,1,57] - 11 m[9,1,58] - 5 m[9,1,59] - 50000 c[9,14,-1.0]
   >= -50017
 R4359: - 5 m[9,0,56] - 2 m[9,0,57] + m[9,0,58] - 10 m[9,0,59]
   - 3 m[9,1,56] - 3 m[9,1,57] - 11 m[9,1,58] + 15 m[9,1,59]
   - 50000 c[9,14,-1.0] >= -50019
 R4360: c[9,15,0.0] + c[9,15,-3.0] + c[9,15,-2.0] + c[9,15,-1.41504]
   + c[9,15,-1.0] = 1
 R4361: - m[9,0,60] - m[9,0,61] - m[9,0,62] - m[9,0,63] - m[9,1,60]
   - m[9,1,61] - m[9,1,62] - m[9,1,63] - 50000 c[9,15,0.0] >= -50000
 R4362: c[9,15,-3.0] = 0
 R4363: - m[9,0,60] - m[9,0,63] - m[9,1,62] - m[9,1,63]
   - 50000 c[9,15,-2.0] >= -50003
 R4364: m[9,0,60] + 2 m[9,0,63] + m[9,1,63] - 50000 c[9,15,-2.0] >= -49998
 R4365: 3 m[9,0,60] + m[9,0,63] + 4 m[9,1,62] + 2 m[9,1,63]
   - 50000 c[9,15,-2.0] >= -49995
 R4366: c[9,15,-1.41504] = 0
 R4367: - 6649 m[9,0,60] + 3 m[9,0,61] - 7 m[9,0,62] + 4 m[9,0,63]
   - 5 m[9,1,60] - m[9,1,61] + 6639 m[9,1,62] - 6648 m[9,1,63]
   - 50000 c[9,15,-1.0] >= -56657
 R4368: 10 m[9,0,60] + 2 m[9,0,61] - 6641 m[9,0,62] - 6649 m[9,0,63]
   + m[9,1,60] + 3 m[9,1,61] - 6647 m[9,1,62] - 3 m[9,1,63]
   - 50000 c[9,15,-1.0] >= -63289
 R4369: 6 m[9,0,60] - m[9,0,61] - 2 m[9,0,62] + 4 m[9,0,63] - 2 m[9,1,61]
   + 5 m[9,1,62] + 4 m[9,1,63] - 50000 c[9,15,-1.0] >= -49999
 R4370: - 17 m[9,0,60] - 4 m[9,0,61] + 5 m[9,0,62] - m[9,0,63]
   + 4 m[9,1,60] + 2 m[9,1,61] + 13 m[9,1,62] - 10 m[9,1,63]
   - 50000 c[9,15,-1.0] >= -50015
 R4371: - 2 m[9,0,60] + 4 m[9,0,61] + 11 m[9,0,62] - 2 m[9,0,63]
   + 9 m[9,1,60] + 9 m[9,1,61] + 14 m[9,1,62] + 14 m[9,1,63]
   - 50000 c[9,15,-1.0] >= -49984
 R4372: 5 m[9,0,60] + 2 m[9,0,61] + 2 m[9,0,62] + 4 m[9,0,63] + 3 m[9,1,61]
   + m[9,1,63] - 50000 c[9,15,-1.0] >= -49995
 R4373: - 3324 m[9,0,60] + m[9,0,61] + 3324 m[9,0,63] + m[9,1,60]
   - 583 m[9,1,61] - 584 m[9,1,62] - 2740 m[9,1,63] - 50000 c[9,15,-1.0]
   >= -53907
 R4374: 15 m[9,0,60] - 2 m[9,0,61] + 3 m[9,0,62] - 10 m[9,0,63] - m[9,1,60]
   - 3 m[9,1,61] - 11 m[9,1,62] - 5 m[9,1,63] - 50000 c[9,15,-1.0]
   >= -50017
 R4375: - 5 m[9,0,60] - 2 m[9,0,61] + m[9,0,62] - 10 m[9,0,63]
   - 3 m[9,1,60] - 3 m[9,1,61] - 11 m[9,1,62] + 15 m[9,1,63]
   - 50000 c[9,15,-1.0] >= -50019
 R4376: c[10,0,0.0] + c[10,0,-3.0] + c[10,0,-2.0] + c[10,0,-1.41504]
   + c[10,0,-1.0] = 1
 R4377: - m[10,0,0] - m[10,0,1] - m[10,0,2] - m[10,0,3] - m[10,1,0]
   - m[10,1,1] - m[10,1,2] - m[10,1,3] - 50000 c[10,0,0.0] >= -50000
 R4378: c[10,0,-3.0] = 0
 R4379: - m[10,0,0] - m[10,0,3] - m[10,1,2] - m[10,1,3]
   - 50000 c[10,0,-2.0] >= -50003
 R4380: m[10,0,0] + 2 m[10,0,3] + m[10,1,3] - 50000 c[10,0,-2.0] >= -49998
 R4381: 3 m[10,0,0] + m[10,0,3] + 4 m[10,1,2] + 2 m[10,1,3]
   - 50000 c[10,0,-2.0] >= -49995
 R4382: c[10,0,-1.41504] = 0
 R4383: - 6649 m[10,0,0] + 3 m[10,0,1] - 7 m[10,0,2] + 4 m[10,0,3]
   - 5 m[10,1,0] - m[10,1,1] + 6639 m[10,1,2] - 6648 m[10,1,3]
   - 50000 c[10,0,-1.0] >= -56657
 R4384: 10 m[10,0,0] + 2 m[10,0,1] - 6641 m[10,0,2] - 6649 m[10,0,3]
   + m[10,1,0] + 3 m[10,1,1] - 6647 m[10,1,2] - 3 m[10,1,3]
   - 50000 c[10,0,-1.0] >= -63289
 R4385: 6 m[10,0,0] - m[10,0,1] - 2 m[10,0,2] + 4 m[10,0,3] - 2 m[10,1,1]
   + 5 m[10,1,2] + 4 m[10,1,3] - 50000 c[10,0,-1.0] >= -49999
 R4386: - 17 m[10,0,0] - 4 m[10,0,1] + 5 m[10,0,2] - m[10,0,3]
   + 4 m[10,1,0] + 2 m[10,1,1] + 13 m[10,1,2] - 10 m[10,1,3]
   - 50000 c[10,0,-1.0] >= -50015
 R4387: - 2 m[10,0,0] + 4 m[10,0,1] + 11 m[10,0,2] - 2 m[10,0,3]
   + 9 m[10,1,0] + 9 m[10,1,1] + 14 m[10,1,2] + 14 m[10,1,3]
   - 50000 c[10,0,-1.0] >= -49984
 R4388: 5 m[10,0,0] + 2 m[10,0,1] + 2 m[10,0,2] + 4 m[10,0,3] + 3 m[10,1,1]
   + m[10,1,3] - 50000 c[10,0,-1.0] >= -49995
 R4389: - 3324 m[10,0,0] + m[10,0,1] + 3324 m[10,0,3] + m[10,1,0]
   - 583 m[10,1,1] - 584 m[10,1,2] - 2740 m[10,1,3] - 50000 c[10,0,-1.0]
   >= -53907
 R4390: 15 m[10,0,0] - 2 m[10,0,1] + 3 m[10,0,2] - 10 m[10,0,3] - m[10,1,0]
   - 3 m[10,1,1] - 11 m[10,1,2] - 5 m[10,1,3] - 50000 c[10,0,-1.0]
   >= -50017
 R4391: - 5 m[10,0,0] - 2 m[10,0,1] + m[10,0,2] - 10 m[10,0,3]
   - 3 m[10,1,0] - 3 m[10,1,1] - 11 m[10,1,2] + 15 m[10,1,3]
   - 50000 c[10,0,-1.0] >= -50019
 R4392: c[10,1,0.0] + c[10,1,-3.0] + c[10,1,-2.0] + c[10,1,-1.41504]
   + c[10,1,-1.0] = 1
 R4393: - m[10,0,4] - m[10,0,5] - m[10,0,6] - m[10,0,7] - m[10,1,4]
   - m[10,1,5] - m[10,1,6] - m[10,1,7] - 50000 c[10,1,0.0] >= -50000
 R4394: c[10,1,-3.0] = 0
 R4395: - m[10,0,4] - m[10,0,7] - m[10,1,6] - m[10,1,7]
   - 50000 c[10,1,-2.0] >= -50003
 R4396: m[10,0,4] + 2 m[10,0,7] + m[10,1,7] - 50000 c[10,1,-2.0] >= -49998
 R4397: 3 m[10,0,4] + m[10,0,7] + 4 m[10,1,6] + 2 m[10,1,7]
   - 50000 c[10,1,-2.0] >= -49995
 R4398: c[10,1,-1.41504] = 0
 R4399: - 6649 m[10,0,4] + 3 m[10,0,5] - 7 m[10,0,6] + 4 m[10,0,7]
   - 5 m[10,1,4] - m[10,1,5] + 6639 m[10,1,6] - 6648 m[10,1,7]
   - 50000 c[10,1,-1.0] >= -56657
 R4400: 10 m[10,0,4] + 2 m[10,0,5] - 6641 m[10,0,6] - 6649 m[10,0,7]
   + m[10,1,4] + 3 m[10,1,5] - 6647 m[10,1,6] - 3 m[10,1,7]
   - 50000 c[10,1,-1.0] >= -63289
 R4401: 6 m[10,0,4] - m[10,0,5] - 2 m[10,0,6] + 4 m[10,0,7] - 2 m[10,1,5]
   + 5 m[10,1,6] + 4 m[10,1,7] - 50000 c[10,1,-1.0] >= -49999
 R4402: - 17 m[10,0,4] - 4 m[10,0,5] + 5 m[10,0,6] - m[10,0,7]
   + 4 m[10,1,4] + 2 m[10,1,5] + 13 m[10,1,6] - 10 m[10,1,7]
   - 50000 c[10,1,-1.0] >= -50015
 R4403: - 2 m[10,0,4] + 4 m[10,0,5] + 11 m[10,0,6] - 2 m[10,0,7]
   + 9 m[10,1,4] + 9 m[10,1,5] + 14 m[10,1,6] + 14 m[10,1,7]
   - 50000 c[10,1,-1.0] >= -49984
 R4404: 5 m[10,0,4] + 2 m[10,0,5] + 2 m[10,0,6] + 4 m[10,0,7] + 3 m[10,1,5]
   + m[10,1,7] - 50000 c[10,1,-1.0] >= -49995
 R4405: - 3324 m[10,0,4] + m[10,0,5] + 3324 m[10,0,7] + m[10,1,4]
   - 583 m[10,1,5] - 584 m[10,1,6] - 2740 m[10,1,7] - 50000 c[10,1,-1.0]
   >= -53907
 R4406: 15 m[10,0,4] - 2 m[10,0,5] + 3 m[10,0,6] - 10 m[10,0,7] - m[10,1,4]
   - 3 m[10,1,5] - 11 m[10,1,6] - 5 m[10,1,7] - 50000 c[10,1,-1.0]
   >= -50017
 R4407: - 5 m[10,0,4] - 2 m[10,0,5] + m[10,0,6] - 10 m[10,0,7]
   - 3 m[10,1,4] - 3 m[10,1,5] - 11 m[10,1,6] + 15 m[10,1,7]
   - 50000 c[10,1,-1.0] >= -50019
 R4408: c[10,2,0.0] + c[10,2,-3.0] + c[10,2,-2.0] + c[10,2,-1.41504]
   + c[10,2,-1.0] = 1
 R4409: c[10,2,0.0] = 0
 R4410: c[10,2,-3.0] = 0
 R4411: - 5 m[10,0,9] + 4 m[10,0,10] - m[10,1,8] + 4 m[10,1,9] - m[10,1,10]
   + m[10,1,11] - 50000 c[10,2,-2.0] >= -50002
 R4412: 7978 m[10,0,9] + m[10,0,10] + 7979 m[10,1,8] + m[10,1,9]
   - 7979 m[10,1,10] + 7979 m[10,1,11] - 50000 c[10,2,-2.0] >= -50000
 R4413: m[10,0,9] - m[10,1,8] + m[10,1,10] + m[10,1,11]
   - 50000 c[10,2,-2.0] >= -50000
 R4414: - 5 m[10,0,9] - 4 m[10,0,10] + m[10,1,8] - 4 m[10,1,9] + m[10,1,10]
   + m[10,1,11] - 50000 c[10,2,-2.0] >= -50008
 R4415: - m[10,0,9] - m[10,1,8] + m[10,1,10] - m[10,1,11]
   - 50000 c[10,2,-2.0] >= -50002
 R4416: 5 m[10,0,9] + 4 m[10,0,10] + m[10,1,8] - 4 m[10,1,9] + m[10,1,10]
   - m[10,1,11] - 50000 c[10,2,-2.0] >= -50000
 R4417: 5 m[10,0,9] - 4 m[10,0,10] - m[10,1,8] + 4 m[10,1,9] - m[10,1,10]
   - m[10,1,11] - 50000 c[10,2,-2.0] >= -50002
 R4418: - 5 m[10,0,9] + 4 m[10,0,10] + m[10,1,8] + 4 m[10,1,9] - m[10,1,10]
   - m[10,1,11] - 50000 c[10,2,-2.0] >= -50002
 R4419: c[10,2,-1.41504] = 0
 R4420: c[10,2,-1.0] = 0
 R4421: c[10,3,0.0] + c[10,3,-3.0] + c[10,3,-2.0] + c[10,3,-1.41504]
   + c[10,3,-1.0] = 1
 R4422: c[10,3,0.0] = 0
 R4423: - m[10,0,15] - m[10,1,12] - m[10,1,15] - 50000 c[10,3,-3.0]
   >= -50002
 R4424: m[10,0,15] + m[10,1,12] - m[10,1,15] - 50000 c[10,3,-3.0]
   >= -50000
 R4425: m[10,0,15] - m[10,1,12] + m[10,1,15] - 50000 c[10,3,-3.0]
   >= -50000
 R4426: - m[10,0,15] + m[10,1,12] + m[10,1,15] - 50000 c[10,3,-3.0]
   >= -50000
 R4427: c[10,3,-2.0] = 0
 R4428: c[10,3,-1.41504] = 0
 R4429: c[10,3,-1.0] = 0
 R4430: c[10,4,0.0] + c[10,4,-3.0] + c[10,4,-2.0] + c[10,4,-1.41504]
   + c[10,4,-1.0] = 1
 R4431: - m[10,0,16] - m[10,0,17] - m[10,0,18] - m[10,0,19] - m[10,1,16]
   - m[10,1,17] - m[10,1,18] - m[10,1,19] - 50000 c[10,4,0.0] >= -50000
 R4432: c[10,4,-3.0] = 0
 R4433: - m[10,0,16] - m[10,0,19] - m[10,1,18] - m[10,1,19]
   - 50000 c[10,4,-2.0] >= -50003
 R4434: m[10,0,16] + 2 m[10,0,19] + m[10,1,19] - 50000 c[10,4,-2.0]
   >= -49998
 R4435: 3 m[10,0,16] + m[10,0,19] + 4 m[10,1,18] + 2 m[10,1,19]
   - 50000 c[10,4,-2.0] >= -49995
 R4436: c[10,4,-1.41504] = 0
 R4437: - 6649 m[10,0,16] + 3 m[10,0,17] - 7 m[10,0,18] + 4 m[10,0,19]
   - 5 m[10,1,16] - m[10,1,17] + 6639 m[10,1,18] - 6648 m[10,1,19]
   - 50000 c[10,4,-1.0] >= -56657
 R4438: 10 m[10,0,16] + 2 m[10,0,17] - 6641 m[10,0,18] - 6649 m[10,0,19]
   + m[10,1,16] + 3 m[10,1,17] - 6647 m[10,1,18] - 3 m[10,1,19]
   - 50000 c[10,4,-1.0] >= -63289
 R4439: 6 m[10,0,16] - m[10,0,17] - 2 m[10,0,18] + 4 m[10,0,19]
   - 2 m[10,1,17] + 5 m[10,1,18] + 4 m[10,1,19] - 50000 c[10,4,-1.0]
   >= -49999
 R4440: - 17 m[10,0,16] - 4 m[10,0,17] + 5 m[10,0,18] - m[10,0,19]
   + 4 m[10,1,16] + 2 m[10,1,17] + 13 m[10,1,18] - 10 m[10,1,19]
   - 50000 c[10,4,-1.0] >= -50015
 R4441: - 2 m[10,0,16] + 4 m[10,0,17] + 11 m[10,0,18] - 2 m[10,0,19]
   + 9 m[10,1,16] + 9 m[10,1,17] + 14 m[10,1,18] + 14 m[10,1,19]
   - 50000 c[10,4,-1.0] >= -49984
 R4442: 5 m[10,0,16] + 2 m[10,0,17] + 2 m[10,0,18] + 4 m[10,0,19]
   + 3 m[10,1,17] + m[10,1,19] - 50000 c[10,4,-1.0] >= -49995
 R4443: - 3324 m[10,0,16] + m[10,0,17] + 3324 m[10,0,19] + m[10,1,16]
   - 583 m[10,1,17] - 584 m[10,1,18] - 2740 m[10,1,19] - 50000 c[10,4,-1.0]
   >= -53907
 R4444: 15 m[10,0,16] - 2 m[10,0,17] + 3 m[10,0,18] - 10 m[10,0,19]
   - m[10,1,16] - 3 m[10,1,17] - 11 m[10,1,18] - 5 m[10,1,19]
   - 50000 c[10,4,-1.0] >= -50017
 R4445: - 5 m[10,0,16] - 2 m[10,0,17] + m[10,0,18] - 10 m[10,0,19]
   - 3 m[10,1,16] - 3 m[10,1,17] - 11 m[10,1,18] + 15 m[10,1,19]
   - 50000 c[10,4,-1.0] >= -50019
 R4446: c[10,5,0.0] + c[10,5,-3.0] + c[10,5,-2.0] + c[10,5,-1.41504]
   + c[10,5,-1.0] = 1
 R4447: - m[10,0,20] - m[10,0,21] - m[10,0,22] - m[10,0,23] - m[10,1,20]
   - m[10,1,21] - m[10,1,22] - m[10,1,23] - 50000 c[10,5,0.0] >= -50000
 R4448: c[10,5,-3.0] = 0
 R4449: - m[10,0,20] - m[10,0,23] - m[10,1,22] - m[10,1,23]
   - 50000 c[10,5,-2.0] >= -50003
 R4450: m[10,0,20] + 2 m[10,0,23] + m[10,1,23] - 50000 c[10,5,-2.0]
   >= -49998
 R4451: 3 m[10,0,20] + m[10,0,23] + 4 m[10,1,22] + 2 m[10,1,23]
   - 50000 c[10,5,-2.0] >= -49995
 R4452: c[10,5,-1.41504] = 0
 R4453: - 6649 m[10,0,20] + 3 m[10,0,21] - 7 m[10,0,22] + 4 m[10,0,23]
   - 5 m[10,1,20] - m[10,1,21] + 6639 m[10,1,22] - 6648 m[10,1,23]
   - 50000 c[10,5,-1.0] >= -56657
 R4454: 10 m[10,0,20] + 2 m[10,0,21] - 6641 m[10,0,22] - 6649 m[10,0,23]
   + m[10,1,20] + 3 m[10,1,21] - 6647 m[10,1,22] - 3 m[10,1,23]
   - 50000 c[10,5,-1.0] >= -63289
 R4455: 6 m[10,0,20] - m[10,0,21] - 2 m[10,0,22] + 4 m[10,0,23]
   - 2 m[10,1,21] + 5 m[10,1,22] + 4 m[10,1,23] - 50000 c[10,5,-1.0]
   >= -49999
 R4456: - 17 m[10,0,20] - 4 m[10,0,21] + 5 m[10,0,22] - m[10,0,23]
   + 4 m[10,1,20] + 2 m[10,1,21] + 13 m[10,1,22] - 10 m[10,1,23]
   - 50000 c[10,5,-1.0] >= -50015
 R4457: - 2 m[10,0,20] + 4 m[10,0,21] + 11 m[10,0,22] - 2 m[10,0,23]
   + 9 m[10,1,20] + 9 m[10,1,21] + 14 m[10,1,22] + 14 m[10,1,23]
   - 50000 c[10,5,-1.0] >= -49984
 R4458: 5 m[10,0,20] + 2 m[10,0,21] + 2 m[10,0,22] + 4 m[10,0,23]
   + 3 m[10,1,21] + m[10,1,23] - 50000 c[10,5,-1.0] >= -49995
 R4459: - 3324 m[10,0,20] + m[10,0,21] + 3324 m[10,0,23] + m[10,1,20]
   - 583 m[10,1,21] - 584 m[10,1,22] - 2740 m[10,1,23] - 50000 c[10,5,-1.0]
   >= -53907
 R4460: 15 m[10,0,20] - 2 m[10,0,21] + 3 m[10,0,22] - 10 m[10,0,23]
   - m[10,1,20] - 3 m[10,1,21] - 11 m[10,1,22] - 5 m[10,1,23]
   - 50000 c[10,5,-1.0] >= -50017
 R4461: - 5 m[10,0,20] - 2 m[10,0,21] + m[10,0,22] - 10 m[10,0,23]
   - 3 m[10,1,20] - 3 m[10,1,21] - 11 m[10,1,22] + 15 m[10,1,23]
   - 50000 c[10,5,-1.0] >= -50019
 R4462: c[10,6,0.0] + c[10,6,-3.0] + c[10,6,-2.0] + c[10,6,-1.41504]
   + c[10,6,-1.0] = 1
 R4463: - m[10,0,24] - m[10,0,25] - m[10,0,26] - m[10,0,27] - m[10,1,24]
   - m[10,1,25] - m[10,1,26] - m[10,1,27] - 50000 c[10,6,0.0] >= -50000
 R4464: c[10,6,-3.0] = 0
 R4465: - m[10,0,24] - m[10,0,27] - m[10,1,26] - m[10,1,27]
   - 50000 c[10,6,-2.0] >= -50003
 R4466: m[10,0,24] + 2 m[10,0,27] + m[10,1,27] - 50000 c[10,6,-2.0]
   >= -49998
 R4467: 3 m[10,0,24] + m[10,0,27] + 4 m[10,1,26] + 2 m[10,1,27]
   - 50000 c[10,6,-2.0] >= -49995
 R4468: c[10,6,-1.41504] = 0
 R4469: - 6649 m[10,0,24] + 3 m[10,0,25] - 7 m[10,0,26] + 4 m[10,0,27]
   - 5 m[10,1,24] - m[10,1,25] + 6639 m[10,1,26] - 6648 m[10,1,27]
   - 50000 c[10,6,-1.0] >= -56657
 R4470: 10 m[10,0,24] + 2 m[10,0,25] - 6641 m[10,0,26] - 6649 m[10,0,27]
   + m[10,1,24] + 3 m[10,1,25] - 6647 m[10,1,26] - 3 m[10,1,27]
   - 50000 c[10,6,-1.0] >= -63289
 R4471: 6 m[10,0,24] - m[10,0,25] - 2 m[10,0,26] + 4 m[10,0,27]
   - 2 m[10,1,25] + 5 m[10,1,26] + 4 m[10,1,27] - 50000 c[10,6,-1.0]
   >= -49999
 R4472: - 17 m[10,0,24] - 4 m[10,0,25] + 5 m[10,0,26] - m[10,0,27]
   + 4 m[10,1,24] + 2 m[10,1,25] + 13 m[10,1,26] - 10 m[10,1,27]
   - 50000 c[10,6,-1.0] >= -50015
 R4473: - 2 m[10,0,24] + 4 m[10,0,25] + 11 m[10,0,26] - 2 m[10,0,27]
   + 9 m[10,1,24] + 9 m[10,1,25] + 14 m[10,1,26] + 14 m[10,1,27]
   - 50000 c[10,6,-1.0] >= -49984
 R4474: 5 m[10,0,24] + 2 m[10,0,25] + 2 m[10,0,26] + 4 m[10,0,27]
   + 3 m[10,1,25] + m[10,1,27] - 50000 c[10,6,-1.0] >= -49995
 R4475: - 3324 m[10,0,24] + m[10,0,25] + 3324 m[10,0,27] + m[10,1,24]
   - 583 m[10,1,25] - 584 m[10,1,26] - 2740 m[10,1,27] - 50000 c[10,6,-1.0]
   >= -53907
 R4476: 15 m[10,0,24] - 2 m[10,0,25] + 3 m[10,0,26] - 10 m[10,0,27]
   - m[10,1,24] - 3 m[10,1,25] - 11 m[10,1,26] - 5 m[10,1,27]
   - 50000 c[10,6,-1.0] >= -50017
 R4477: - 5 m[10,0,24] - 2 m[10,0,25] + m[10,0,26] - 10 m[10,0,27]
   - 3 m[10,1,24] - 3 m[10,1,25] - 11 m[10,1,26] + 15 m[10,1,27]
   - 50000 c[10,6,-1.0] >= -50019
 R4478: c[10,7,0.0] + c[10,7,-3.0] + c[10,7,-2.0] + c[10,7,-1.41504]
   + c[10,7,-1.0] = 1
 R4479: - m[10,0,28] - m[10,0,29] - m[10,0,30] - m[10,0,31] - m[10,1,28]
   - m[10,1,29] - m[10,1,30] - m[10,1,31] - 50000 c[10,7,0.0] >= -50000
 R4480: c[10,7,-3.0] = 0
 R4481: - m[10,0,28] - m[10,0,31] - m[10,1,30] - m[10,1,31]
   - 50000 c[10,7,-2.0] >= -50003
 R4482: m[10,0,28] + 2 m[10,0,31] + m[10,1,31] - 50000 c[10,7,-2.0]
   >= -49998
 R4483: 3 m[10,0,28] + m[10,0,31] + 4 m[10,1,30] + 2 m[10,1,31]
   - 50000 c[10,7,-2.0] >= -49995
 R4484: c[10,7,-1.41504] = 0
 R4485: - 6649 m[10,0,28] + 3 m[10,0,29] - 7 m[10,0,30] + 4 m[10,0,31]
   - 5 m[10,1,28] - m[10,1,29] + 6639 m[10,1,30] - 6648 m[10,1,31]
   - 50000 c[10,7,-1.0] >= -56657
 R4486: 10 m[10,0,28] + 2 m[10,0,29] - 6641 m[10,0,30] - 6649 m[10,0,31]
   + m[10,1,28] + 3 m[10,1,29] - 6647 m[10,1,30] - 3 m[10,1,31]
   - 50000 c[10,7,-1.0] >= -63289
 R4487: 6 m[10,0,28] - m[10,0,29] - 2 m[10,0,30] + 4 m[10,0,31]
   - 2 m[10,1,29] + 5 m[10,1,30] + 4 m[10,1,31] - 50000 c[10,7,-1.0]
   >= -49999
 R4488: - 17 m[10,0,28] - 4 m[10,0,29] + 5 m[10,0,30] - m[10,0,31]
   + 4 m[10,1,28] + 2 m[10,1,29] + 13 m[10,1,30] - 10 m[10,1,31]
   - 50000 c[10,7,-1.0] >= -50015
 R4489: - 2 m[10,0,28] + 4 m[10,0,29] + 11 m[10,0,30] - 2 m[10,0,31]
   + 9 m[10,1,28] + 9 m[10,1,29] + 14 m[10,1,30] + 14 m[10,1,31]
   - 50000 c[10,7,-1.0] >= -49984
 R4490: 5 m[10,0,28] + 2 m[10,0,29] + 2 m[10,0,30] + 4 m[10,0,31]
   + 3 m[10,1,29] + m[10,1,31] - 50000 c[10,7,-1.0] >= -49995
 R4491: - 3324 m[10,0,28] + m[10,0,29] + 3324 m[10,0,31] + m[10,1,28]
   - 583 m[10,1,29] - 584 m[10,1,30] - 2740 m[10,1,31] - 50000 c[10,7,-1.0]
   >= -53907
 R4492: 15 m[10,0,28] - 2 m[10,0,29] + 3 m[10,0,30] - 10 m[10,0,31]
   - m[10,1,28] - 3 m[10,1,29] - 11 m[10,1,30] - 5 m[10,1,31]
   - 50000 c[10,7,-1.0] >= -50017
 R4493: - 5 m[10,0,28] - 2 m[10,0,29] + m[10,0,30] - 10 m[10,0,31]
   - 3 m[10,1,28] - 3 m[10,1,29] - 11 m[10,1,30] + 15 m[10,1,31]
   - 50000 c[10,7,-1.0] >= -50019
 R4494: c[10,8,0.0] + c[10,8,-3.0] + c[10,8,-2.0] + c[10,8,-1.41504]
   + c[10,8,-1.0] = 1
 R4495: - m[10,0,32] - m[10,0,33] - m[10,0,34] - m[10,0,35] - m[10,1,32]
   - m[10,1,33] - m[10,1,34] - m[10,1,35] - 50000 c[10,8,0.0] >= -50000
 R4496: c[10,8,-3.0] = 0
 R4497: - m[10,0,32] - m[10,0,35] - m[10,1,34] - m[10,1,35]
   - 50000 c[10,8,-2.0] >= -50003
 R4498: m[10,0,32] + 2 m[10,0,35] + m[10,1,35] - 50000 c[10,8,-2.0]
   >= -49998
 R4499: 3 m[10,0,32] + m[10,0,35] + 4 m[10,1,34] + 2 m[10,1,35]
   - 50000 c[10,8,-2.0] >= -49995
 R4500: c[10,8,-1.41504] = 0
 R4501: - 6649 m[10,0,32] + 3 m[10,0,33] - 7 m[10,0,34] + 4 m[10,0,35]
   - 5 m[10,1,32] - m[10,1,33] + 6639 m[10,1,34] - 6648 m[10,1,35]
   - 50000 c[10,8,-1.0] >= -56657
 R4502: 10 m[10,0,32] + 2 m[10,0,33] - 6641 m[10,0,34] - 6649 m[10,0,35]
   + m[10,1,32] + 3 m[10,1,33] - 6647 m[10,1,34] - 3 m[10,1,35]
   - 50000 c[10,8,-1.0] >= -63289
 R4503: 6 m[10,0,32] - m[10,0,33] - 2 m[10,0,34] + 4 m[10,0,35]
   - 2 m[10,1,33] + 5 m[10,1,34] + 4 m[10,1,35] - 50000 c[10,8,-1.0]
   >= -49999
 R4504: - 17 m[10,0,32] - 4 m[10,0,33] + 5 m[10,0,34] - m[10,0,35]
   + 4 m[10,1,32] + 2 m[10,1,33] + 13 m[10,1,34] - 10 m[10,1,35]
   - 50000 c[10,8,-1.0] >= -50015
 R4505: - 2 m[10,0,32] + 4 m[10,0,33] + 11 m[10,0,34] - 2 m[10,0,35]
   + 9 m[10,1,32] + 9 m[10,1,33] + 14 m[10,1,34] + 14 m[10,1,35]
   - 50000 c[10,8,-1.0] >= -49984
 R4506: 5 m[10,0,32] + 2 m[10,0,33] + 2 m[10,0,34] + 4 m[10,0,35]
   + 3 m[10,1,33] + m[10,1,35] - 50000 c[10,8,-1.0] >= -49995
 R4507: - 3324 m[10,0,32] + m[10,0,33] + 3324 m[10,0,35] + m[10,1,32]
   - 583 m[10,1,33] - 584 m[10,1,34] - 2740 m[10,1,35] - 50000 c[10,8,-1.0]
   >= -53907
 R4508: 15 m[10,0,32] - 2 m[10,0,33] + 3 m[10,0,34] - 10 m[10,0,35]
   - m[10,1,32] - 3 m[10,1,33] - 11 m[10,1,34] - 5 m[10,1,35]
   - 50000 c[10,8,-1.0] >= -50017
 R4509: - 5 m[10,0,32] - 2 m[10,0,33] + m[10,0,34] - 10 m[10,0,35]
   - 3 m[10,1,32] - 3 m[10,1,33] - 11 m[10,1,34] + 15 m[10,1,35]
   - 50000 c[10,8,-1.0] >= -50019
 R4510: c[10,9,0.0] + c[10,9,-3.0] + c[10,9,-2.0] + c[10,9,-1.41504]
   + c[10,9,-1.0] = 1
 R4511: - m[10,0,36] - m[10,0,37] - m[10,0,38] - m[10,0,39] - m[10,1,36]
   - m[10,1,37] - m[10,1,38] - m[10,1,39] - 50000 c[10,9,0.0] >= -50000
 R4512: c[10,9,-3.0] = 0
 R4513: - m[10,0,36] - m[10,0,39] - m[10,1,38] - m[10,1,39]
   - 50000 c[10,9,-2.0] >= -50003
 R4514: m[10,0,36] + 2 m[10,0,39] + m[10,1,39] - 50000 c[10,9,-2.0]
   >= -49998
 R4515: 3 m[10,0,36] + m[10,0,39] + 4 m[10,1,38] + 2 m[10,1,39]
   - 50000 c[10,9,-2.0] >= -49995
 R4516: c[10,9,-1.41504] = 0
 R4517: - 6649 m[10,0,36] + 3 m[10,0,37] - 7 m[10,0,38] + 4 m[10,0,39]
   - 5 m[10,1,36] - m[10,1,37] + 6639 m[10,1,38] - 6648 m[10,1,39]
   - 50000 c[10,9,-1.0] >= -56657
 R4518: 10 m[10,0,36] + 2 m[10,0,37] - 6641 m[10,0,38] - 6649 m[10,0,39]
   + m[10,1,36] + 3 m[10,1,37] - 6647 m[10,1,38] - 3 m[10,1,39]
   - 50000 c[10,9,-1.0] >= -63289
 R4519: 6 m[10,0,36] - m[10,0,37] - 2 m[10,0,38] + 4 m[10,0,39]
   - 2 m[10,1,37] + 5 m[10,1,38] + 4 m[10,1,39] - 50000 c[10,9,-1.0]
   >= -49999
 R4520: - 17 m[10,0,36] - 4 m[10,0,37] + 5 m[10,0,38] - m[10,0,39]
   + 4 m[10,1,36] + 2 m[10,1,37] + 13 m[10,1,38] - 10 m[10,1,39]
   - 50000 c[10,9,-1.0] >= -50015
 R4521: - 2 m[10,0,36] + 4 m[10,0,37] + 11 m[10,0,38] - 2 m[10,0,39]
   + 9 m[10,1,36] + 9 m[10,1,37] + 14 m[10,1,38] + 14 m[10,1,39]
   - 50000 c[10,9,-1.0] >= -49984
 R4522: 5 m[10,0,36] + 2 m[10,0,37] + 2 m[10,0,38] + 4 m[10,0,39]
   + 3 m[10,1,37] + m[10,1,39] - 50000 c[10,9,-1.0] >= -49995
 R4523: - 3324 m[10,0,36] + m[10,0,37] + 3324 m[10,0,39] + m[10,1,36]
   - 583 m[10,1,37] - 584 m[10,1,38] - 2740 m[10,1,39] - 50000 c[10,9,-1.0]
   >= -53907
 R4524: 15 m[10,0,36] - 2 m[10,0,37] + 3 m[10,0,38] - 10 m[10,0,39]
   - m[10,1,36] - 3 m[10,1,37] - 11 m[10,1,38] - 5 m[10,1,39]
   - 50000 c[10,9,-1.0] >= -50017
 R4525: - 5 m[10,0,36] - 2 m[10,0,37] + m[10,0,38] - 10 m[10,0,39]
   - 3 m[10,1,36] - 3 m[10,1,37] - 11 m[10,1,38] + 15 m[10,1,39]
   - 50000 c[10,9,-1.0] >= -50019
 R4526: c[10,10,0.0] + c[10,10,-3.0] + c[10,10,-2.0] + c[10,10,-1.41504]
   + c[10,10,-1.0] = 1
 R4527: - m[10,0,40] - m[10,0,41] - m[10,0,42] - m[10,0,43] - m[10,1,40]
   - m[10,1,41] - m[10,1,42] - m[10,1,43] - 50000 c[10,10,0.0] >= -50000
 R4528: c[10,10,-3.0] = 0
 R4529: - m[10,0,40] - m[10,0,43] - m[10,1,42] - m[10,1,43]
   - 50000 c[10,10,-2.0] >= -50003
 R4530: m[10,0,40] + 2 m[10,0,43] + m[10,1,43] - 50000 c[10,10,-2.0]
   >= -49998
 R4531: 3 m[10,0,40] + m[10,0,43] + 4 m[10,1,42] + 2 m[10,1,43]
   - 50000 c[10,10,-2.0] >= -49995
 R4532: c[10,10,-1.41504] = 0
 R4533: - 6649 m[10,0,40] + 3 m[10,0,41] - 7 m[10,0,42] + 4 m[10,0,43]
   - 5 m[10,1,40] - m[10,1,41] + 6639 m[10,1,42] - 6648 m[10,1,43]
   - 50000 c[10,10,-1.0] >= -56657
 R4534: 10 m[10,0,40] + 2 m[10,0,41] - 6641 m[10,0,42] - 6649 m[10,0,43]
   + m[10,1,40] + 3 m[10,1,41] - 6647 m[10,1,42] - 3 m[10,1,43]
   - 50000 c[10,10,-1.0] >= -63289
 R4535: 6 m[10,0,40] - m[10,0,41] - 2 m[10,0,42] + 4 m[10,0,43]
   - 2 m[10,1,41] + 5 m[10,1,42] + 4 m[10,1,43] - 50000 c[10,10,-1.0]
   >= -49999
 R4536: - 17 m[10,0,40] - 4 m[10,0,41] + 5 m[10,0,42] - m[10,0,43]
   + 4 m[10,1,40] + 2 m[10,1,41] + 13 m[10,1,42] - 10 m[10,1,43]
   - 50000 c[10,10,-1.0] >= -50015
 R4537: - 2 m[10,0,40] + 4 m[10,0,41] + 11 m[10,0,42] - 2 m[10,0,43]
   + 9 m[10,1,40] + 9 m[10,1,41] + 14 m[10,1,42] + 14 m[10,1,43]
   - 50000 c[10,10,-1.0] >= -49984
 R4538: 5 m[10,0,40] + 2 m[10,0,41] + 2 m[10,0,42] + 4 m[10,0,43]
   + 3 m[10,1,41] + m[10,1,43] - 50000 c[10,10,-1.0] >= -49995
 R4539: - 3324 m[10,0,40] + m[10,0,41] + 3324 m[10,0,43] + m[10,1,40]
   - 583 m[10,1,41] - 584 m[10,1,42] - 2740 m[10,1,43]
   - 50000 c[10,10,-1.0] >= -53907
 R4540: 15 m[10,0,40] - 2 m[10,0,41] + 3 m[10,0,42] - 10 m[10,0,43]
   - m[10,1,40] - 3 m[10,1,41] - 11 m[10,1,42] - 5 m[10,1,43]
   - 50000 c[10,10,-1.0] >= -50017
 R4541: - 5 m[10,0,40] - 2 m[10,0,41] + m[10,0,42] - 10 m[10,0,43]
   - 3 m[10,1,40] - 3 m[10,1,41] - 11 m[10,1,42] + 15 m[10,1,43]
   - 50000 c[10,10,-1.0] >= -50019
 R4542: c[10,11,0.0] + c[10,11,-3.0] + c[10,11,-2.0] + c[10,11,-1.41504]
   + c[10,11,-1.0] = 1
 R4543: - m[10,0,44] - m[10,0,45] - m[10,0,46] - m[10,0,47] - m[10,1,44]
   - m[10,1,45] - m[10,1,46] - m[10,1,47] - 50000 c[10,11,0.0] >= -50000
 R4544: c[10,11,-3.0] = 0
 R4545: - m[10,0,44] - m[10,0,47] - m[10,1,46] - m[10,1,47]
   - 50000 c[10,11,-2.0] >= -50003
 R4546: m[10,0,44] + 2 m[10,0,47] + m[10,1,47] - 50000 c[10,11,-2.0]
   >= -49998
 R4547: 3 m[10,0,44] + m[10,0,47] + 4 m[10,1,46] + 2 m[10,1,47]
   - 50000 c[10,11,-2.0] >= -49995
 R4548: c[10,11,-1.41504] = 0
 R4549: - 6649 m[10,0,44] + 3 m[10,0,45] - 7 m[10,0,46] + 4 m[10,0,47]
   - 5 m[10,1,44] - m[10,1,45] + 6639 m[10,1,46] - 6648 m[10,1,47]
   - 50000 c[10,11,-1.0] >= -56657
 R4550: 10 m[10,0,44] + 2 m[10,0,45] - 6641 m[10,0,46] - 6649 m[10,0,47]
   + m[10,1,44] + 3 m[10,1,45] - 6647 m[10,1,46] - 3 m[10,1,47]
   - 50000 c[10,11,-1.0] >= -63289
 R4551: 6 m[10,0,44] - m[10,0,45] - 2 m[10,0,46] + 4 m[10,0,47]
   - 2 m[10,1,45] + 5 m[10,1,46] + 4 m[10,1,47] - 50000 c[10,11,-1.0]
   >= -49999
 R4552: - 17 m[10,0,44] - 4 m[10,0,45] + 5 m[10,0,46] - m[10,0,47]
   + 4 m[10,1,44] + 2 m[10,1,45] + 13 m[10,1,46] - 10 m[10,1,47]
   - 50000 c[10,11,-1.0] >= -50015
 R4553: - 2 m[10,0,44] + 4 m[10,0,45] + 11 m[10,0,46] - 2 m[10,0,47]
   + 9 m[10,1,44] + 9 m[10,1,45] + 14 m[10,1,46] + 14 m[10,1,47]
   - 50000 c[10,11,-1.0] >= -49984
 R4554: 5 m[10,0,44] + 2 m[10,0,45] + 2 m[10,0,46] + 4 m[10,0,47]
   + 3 m[10,1,45] + m[10,1,47] - 50000 c[10,11,-1.0] >= -49995
 R4555: - 3324 m[10,0,44] + m[10,0,45] + 3324 m[10,0,47] + m[10,1,44]
   - 583 m[10,1,45] - 584 m[10,1,46] - 2740 m[10,1,47]
   - 50000 c[10,11,-1.0] >= -53907
 R4556: 15 m[10,0,44] - 2 m[10,0,45] + 3 m[10,0,46] - 10 m[10,0,47]
   - m[10,1,44] - 3 m[10,1,45] - 11 m[10,1,46] - 5 m[10,1,47]
   - 50000 c[10,11,-1.0] >= -50017
 R4557: - 5 m[10,0,44] - 2 m[10,0,45] + m[10,0,46] - 10 m[10,0,47]
   - 3 m[10,1,44] - 3 m[10,1,45] - 11 m[10,1,46] + 15 m[10,1,47]
   - 50000 c[10,11,-1.0] >= -50019
 R4558: c[10,12,0.0] + c[10,12,-3.0] + c[10,12,-2.0] + c[10,12,-1.41504]
   + c[10,12,-1.0] = 1
 R4559: - m[10,0,48] - m[10,0,49] - m[10,0,50] - m[10,0,51] - m[10,1,48]
   - m[10,1,49] - m[10,1,50] - m[10,1,51] - 50000 c[10,12,0.0] >= -50000
 R4560: c[10,12,-3.0] = 0
 R4561: - m[10,0,48] - m[10,0,51] - m[10,1,50] - m[10,1,51]
   - 50000 c[10,12,-2.0] >= -50003
 R4562: m[10,0,48] + 2 m[10,0,51] + m[10,1,51] - 50000 c[10,12,-2.0]
   >= -49998
 R4563: 3 m[10,0,48] + m[10,0,51] + 4 m[10,1,50] + 2 m[10,1,51]
   - 50000 c[10,12,-2.0] >= -49995
 R4564: c[10,12,-1.41504] = 0
 R4565: - 6649 m[10,0,48] + 3 m[10,0,49] - 7 m[10,0,50] + 4 m[10,0,51]
   - 5 m[10,1,48] - m[10,1,49] + 6639 m[10,1,50] - 6648 m[10,1,51]
   - 50000 c[10,12,-1.0] >= -56657
 R4566: 10 m[10,0,48] + 2 m[10,0,49] - 6641 m[10,0,50] - 6649 m[10,0,51]
   + m[10,1,48] + 3 m[10,1,49] - 6647 m[10,1,50] - 3 m[10,1,51]
   - 50000 c[10,12,-1.0] >= -63289
 R4567: 6 m[10,0,48] - m[10,0,49] - 2 m[10,0,50] + 4 m[10,0,51]
   - 2 m[10,1,49] + 5 m[10,1,50] + 4 m[10,1,51] - 50000 c[10,12,-1.0]
   >= -49999
 R4568: - 17 m[10,0,48] - 4 m[10,0,49] + 5 m[10,0,50] - m[10,0,51]
   + 4 m[10,1,48] + 2 m[10,1,49] + 13 m[10,1,50] - 10 m[10,1,51]
   - 50000 c[10,12,-1.0] >= -50015
 R4569: - 2 m[10,0,48] + 4 m[10,0,49] + 11 m[10,0,50] - 2 m[10,0,51]
   + 9 m[10,1,48] + 9 m[10,1,49] + 14 m[10,1,50] + 14 m[10,1,51]
   - 50000 c[10,12,-1.0] >= -49984
 R4570: 5 m[10,0,48] + 2 m[10,0,49] + 2 m[10,0,50] + 4 m[10,0,51]
   + 3 m[10,1,49] + m[10,1,51] - 50000 c[10,12,-1.0] >= -49995
 R4571: - 3324 m[10,0,48] + m[10,0,49] + 3324 m[10,0,51] + m[10,1,48]
   - 583 m[10,1,49] - 584 m[10,1,50] - 2740 m[10,1,51]
   - 50000 c[10,12,-1.0] >= -53907
 R4572: 15 m[10,0,48] - 2 m[10,0,49] + 3 m[10,0,50] - 10 m[10,0,51]
   - m[10,1,48] - 3 m[10,1,49] - 11 m[10,1,50] - 5 m[10,1,51]
   - 50000 c[10,12,-1.0] >= -50017
 R4573: - 5 m[10,0,48] - 2 m[10,0,49] + m[10,0,50] - 10 m[10,0,51]
   - 3 m[10,1,48] - 3 m[10,1,49] - 11 m[10,1,50] + 15 m[10,1,51]
   - 50000 c[10,12,-1.0] >= -50019
 R4574: c[10,13,0.0] + c[10,13,-3.0] + c[10,13,-2.0] + c[10,13,-1.41504]
   + c[10,13,-1.0] = 1
 R4575: - m[10,0,52] - m[10,0,53] - m[10,0,54] - m[10,0,55] - m[10,1,52]
   - m[10,1,53] - m[10,1,54] - m[10,1,55] - 50000 c[10,13,0.0] >= -50000
 R4576: c[10,13,-3.0] = 0
 R4577: - m[10,0,52] - m[10,0,55] - m[10,1,54] - m[10,1,55]
   - 50000 c[10,13,-2.0] >= -50003
 R4578: m[10,0,52] + 2 m[10,0,55] + m[10,1,55] - 50000 c[10,13,-2.0]
   >= -49998
 R4579: 3 m[10,0,52] + m[10,0,55] + 4 m[10,1,54] + 2 m[10,1,55]
   - 50000 c[10,13,-2.0] >= -49995
 R4580: c[10,13,-1.41504] = 0
 R4581: - 6649 m[10,0,52] + 3 m[10,0,53] - 7 m[10,0,54] + 4 m[10,0,55]
   - 5 m[10,1,52] - m[10,1,53] + 6639 m[10,1,54] - 6648 m[10,1,55]
   - 50000 c[10,13,-1.0] >= -56657
 R4582: 10 m[10,0,52] + 2 m[10,0,53] - 6641 m[10,0,54] - 6649 m[10,0,55]
   + m[10,1,52] + 3 m[10,1,53] - 6647 m[10,1,54] - 3 m[10,1,55]
   - 50000 c[10,13,-1.0] >= -63289
 R4583: 6 m[10,0,52] - m[10,0,53] - 2 m[10,0,54] + 4 m[10,0,55]
   - 2 m[10,1,53] + 5 m[10,1,54] + 4 m[10,1,55] - 50000 c[10,13,-1.0]
   >= -49999
 R4584: - 17 m[10,0,52] - 4 m[10,0,53] + 5 m[10,0,54] - m[10,0,55]
   + 4 m[10,1,52] + 2 m[10,1,53] + 13 m[10,1,54] - 10 m[10,1,55]
   - 50000 c[10,13,-1.0] >= -50015
 R4585: - 2 m[10,0,52] + 4 m[10,0,53] + 11 m[10,0,54] - 2 m[10,0,55]
   + 9 m[10,1,52] + 9 m[10,1,53] + 14 m[10,1,54] + 14 m[10,1,55]
   - 50000 c[10,13,-1.0] >= -49984
 R4586: 5 m[10,0,52] + 2 m[10,0,53] + 2 m[10,0,54] + 4 m[10,0,55]
   + 3 m[10,1,53] + m[10,1,55] - 50000 c[10,13,-1.0] >= -49995
 R4587: - 3324 m[10,0,52] + m[10,0,53] + 3324 m[10,0,55] + m[10,1,52]
   - 583 m[10,1,53] - 584 m[10,1,54] - 2740 m[10,1,55]
   - 50000 c[10,13,-1.0] >= -53907
 R4588: 15 m[10,0,52] - 2 m[10,0,53] + 3 m[10,0,54] - 10 m[10,0,55]
   - m[10,1,52] - 3 m[10,1,53] - 11 m[10,1,54] - 5 m[10,1,55]
   - 50000 c[10,13,-1.0] >= -50017
 R4589: - 5 m[10,0,52] - 2 m[10,0,53] + m[10,0,54] - 10 m[10,0,55]
   - 3 m[10,1,52] - 3 m[10,1,53] - 11 m[10,1,54] + 15 m[10,1,55]
   - 50000 c[10,13,-1.0] >= -50019
 R4590: c[10,14,0.0] + c[10,14,-3.0] + c[10,14,-2.0] + c[10,14,-1.41504]
   + c[10,14,-1.0] = 1
 R4591: - m[10,0,56] - m[10,0,57] - m[10,0,58] - m[10,0,59] - m[10,1,56]
   - m[10,1,57] - m[10,1,58] - m[10,1,59] - 50000 c[10,14,0.0] >= -50000
 R4592: c[10,14,-3.0] = 0
 R4593: - m[10,0,56] - m[10,0,59] - m[10,1,58] - m[10,1,59]
   - 50000 c[10,14,-2.0] >= -50003
 R4594: m[10,0,56] + 2 m[10,0,59] + m[10,1,59] - 50000 c[10,14,-2.0]
   >= -49998
 R4595: 3 m[10,0,56] + m[10,0,59] + 4 m[10,1,58] + 2 m[10,1,59]
   - 50000 c[10,14,-2.0] >= -49995
 R4596: c[10,14,-1.41504] = 0
 R4597: - 6649 m[10,0,56] + 3 m[10,0,57] - 7 m[10,0,58] + 4 m[10,0,59]
   - 5 m[10,1,56] - m[10,1,57] + 6639 m[10,1,58] - 6648 m[10,1,59]
   - 50000 c[10,14,-1.0] >= -56657
 R4598: 10 m[10,0,56] + 2 m[10,0,57] - 6641 m[10,0,58] - 6649 m[10,0,59]
   + m[10,1,56] + 3 m[10,1,57] - 6647 m[10,1,58] - 3 m[10,1,59]
   - 50000 c[10,14,-1.0] >= -63289
 R4599: 6 m[10,0,56] - m[10,0,57] - 2 m[10,0,58] + 4 m[10,0,59]
   - 2 m[10,1,57] + 5 m[10,1,58] + 4 m[10,1,59] - 50000 c[10,14,-1.0]
   >= -49999
 R4600: - 17 m[10,0,56] - 4 m[10,0,57] + 5 m[10,0,58] - m[10,0,59]
   + 4 m[10,1,56] + 2 m[10,1,57] + 13 m[10,1,58] - 10 m[10,1,59]
   - 50000 c[10,14,-1.0] >= -50015
 R4601: - 2 m[10,0,56] + 4 m[10,0,57] + 11 m[10,0,58] - 2 m[10,0,59]
   + 9 m[10,1,56] + 9 m[10,1,57] + 14 m[10,1,58] + 14 m[10,1,59]
   - 50000 c[10,14,-1.0] >= -49984
 R4602: 5 m[10,0,56] + 2 m[10,0,57] + 2 m[10,0,58] + 4 m[10,0,59]
   + 3 m[10,1,57] + m[10,1,59] - 50000 c[10,14,-1.0] >= -49995
 R4603: - 3324 m[10,0,56] + m[10,0,57] + 3324 m[10,0,59] + m[10,1,56]
   - 583 m[10,1,57] - 584 m[10,1,58] - 2740 m[10,1,59]
   - 50000 c[10,14,-1.0] >= -53907
 R4604: 15 m[10,0,56] - 2 m[10,0,57] + 3 m[10,0,58] - 10 m[10,0,59]
   - m[10,1,56] - 3 m[10,1,57] - 11 m[10,1,58] - 5 m[10,1,59]
   - 50000 c[10,14,-1.0] >= -50017
 R4605: - 5 m[10,0,56] - 2 m[10,0,57] + m[10,0,58] - 10 m[10,0,59]
   - 3 m[10,1,56] - 3 m[10,1,57] - 11 m[10,1,58] + 15 m[10,1,59]
   - 50000 c[10,14,-1.0] >= -50019
 R4606: c[10,15,0.0] + c[10,15,-3.0] + c[10,15,-2.0] + c[10,15,-1.41504]
   + c[10,15,-1.0] = 1
 R4607: - m[10,0,60] - m[10,0,61] - m[10,0,62] - m[10,0,63] - m[10,1,60]
   - m[10,1,61] - m[10,1,62] - m[10,1,63] - 50000 c[10,15,0.0] >= -50000
 R4608: c[10,15,-3.0] = 0
 R4609: - m[10,0,60] - m[10,0,63] - m[10,1,62] - m[10,1,63]
   - 50000 c[10,15,-2.0] >= -50003
 R4610: m[10,0,60] + 2 m[10,0,63] + m[10,1,63] - 50000 c[10,15,-2.0]
   >= -49998
 R4611: 3 m[10,0,60] + m[10,0,63] + 4 m[10,1,62] + 2 m[10,1,63]
   - 50000 c[10,15,-2.0] >= -49995
 R4612: c[10,15,-1.41504] = 0
 R4613: - 6649 m[10,0,60] + 3 m[10,0,61] - 7 m[10,0,62] + 4 m[10,0,63]
   - 5 m[10,1,60] - m[10,1,61] + 6639 m[10,1,62] - 6648 m[10,1,63]
   - 50000 c[10,15,-1.0] >= -56657
 R4614: 10 m[10,0,60] + 2 m[10,0,61] - 6641 m[10,0,62] - 6649 m[10,0,63]
   + m[10,1,60] + 3 m[10,1,61] - 6647 m[10,1,62] - 3 m[10,1,63]
   - 50000 c[10,15,-1.0] >= -63289
 R4615: 6 m[10,0,60] - m[10,0,61] - 2 m[10,0,62] + 4 m[10,0,63]
   - 2 m[10,1,61] + 5 m[10,1,62] + 4 m[10,1,63] - 50000 c[10,15,-1.0]
   >= -49999
 R4616: - 17 m[10,0,60] - 4 m[10,0,61] + 5 m[10,0,62] - m[10,0,63]
   + 4 m[10,1,60] + 2 m[10,1,61] + 13 m[10,1,62] - 10 m[10,1,63]
   - 50000 c[10,15,-1.0] >= -50015
 R4617: - 2 m[10,0,60] + 4 m[10,0,61] + 11 m[10,0,62] - 2 m[10,0,63]
   + 9 m[10,1,60] + 9 m[10,1,61] + 14 m[10,1,62] + 14 m[10,1,63]
   - 50000 c[10,15,-1.0] >= -49984
 R4618: 5 m[10,0,60] + 2 m[10,0,61] + 2 m[10,0,62] + 4 m[10,0,63]
   + 3 m[10,1,61] + m[10,1,63] - 50000 c[10,15,-1.0] >= -49995
 R4619: - 3324 m[10,0,60] + m[10,0,61] + 3324 m[10,0,63] + m[10,1,60]
   - 583 m[10,1,61] - 584 m[10,1,62] - 2740 m[10,1,63]
   - 50000 c[10,15,-1.0] >= -53907
 R4620: 15 m[10,0,60] - 2 m[10,0,61] + 3 m[10,0,62] - 10 m[10,0,63]
   - m[10,1,60] - 3 m[10,1,61] - 11 m[10,1,62] - 5 m[10,1,63]
   - 50000 c[10,15,-1.0] >= -50017
 R4621: - 5 m[10,0,60] - 2 m[10,0,61] + m[10,0,62] - 10 m[10,0,63]
   - 3 m[10,1,60] - 3 m[10,1,61] - 11 m[10,1,62] + 15 m[10,1,63]
   - 50000 c[10,15,-1.0] >= -50019
 R4622: c[11,0,0.0] + c[11,0,-3.0] + c[11,0,-2.0] + c[11,0,-1.41504]
   + c[11,0,-1.0] = 1
 R4623: c[11,0,0.0] = 0
 R4624: m[11,0,3] - m[11,1,0] - 50000 c[11,0,-3.0] >= -50000
 R4625: - m[11,0,3] + m[11,1,0] - 50000 c[11,0,-3.0] >= -50000
 R4626: c[11,0,-2.0] = 0
 R4627: c[11,0,-1.41504] = 0
 R4628: c[11,0,-1.0] = 0
 R4629: c[11,1,0.0] + c[11,1,-3.0] + c[11,1,-2.0] + c[11,1,-1.41504]
   + c[11,1,-1.0] = 1
 R4630: - m[11,0,4] - m[11,0,5] - m[11,0,6] - m[11,0,7] - m[11,1,4]
   - m[11,1,5] - m[11,1,6] - m[11,1,7] - 50000 c[11,1,0.0] >= -50000
 R4631: c[11,1,-3.0] = 0
 R4632: - m[11,0,4] - m[11,0,7] - m[11,1,6] - m[11,1,7]
   - 50000 c[11,1,-2.0] >= -50003
 R4633: m[11,0,4] + 2 m[11,0,7] + m[11,1,7] - 50000 c[11,1,-2.0] >= -49998
 R4634: 3 m[11,0,4] + m[11,0,7] + 4 m[11,1,6] + 2 m[11,1,7]
   - 50000 c[11,1,-2.0] >= -49995
 R4635: c[11,1,-1.41504] = 0
 R4636: - 6649 m[11,0,4] + 3 m[11,0,5] - 7 m[11,0,6] + 4 m[11,0,7]
   - 5 m[11,1,4] - m[11,1,5] + 6639 m[11,1,6] - 6648 m[11,1,7]
   - 50000 c[11,1,-1.0] >= -56657
 R4637: 10 m[11,0,4] + 2 m[11,0,5] - 6641 m[11,0,6] - 6649 m[11,0,7]
   + m[11,1,4] + 3 m[11,1,5] - 6647 m[11,1,6] - 3 m[11,1,7]
   - 50000 c[11,1,-1.0] >= -63289
 R4638: 6 m[11,0,4] - m[11,0,5] - 2 m[11,0,6] + 4 m[11,0,7] - 2 m[11,1,5]
   + 5 m[11,1,6] + 4 m[11,1,7] - 50000 c[11,1,-1.0] >= -49999
 R4639: - 17 m[11,0,4] - 4 m[11,0,5] + 5 m[11,0,6] - m[11,0,7]
   + 4 m[11,1,4] + 2 m[11,1,5] + 13 m[11,1,6] - 10 m[11,1,7]
   - 50000 c[11,1,-1.0] >= -50015
 R4640: - 2 m[11,0,4] + 4 m[11,0,5] + 11 m[11,0,6] - 2 m[11,0,7]
   + 9 m[11,1,4] + 9 m[11,1,5] + 14 m[11,1,6] + 14 m[11,1,7]
   - 50000 c[11,1,-1.0] >= -49984
 R4641: 5 m[11,0,4] + 2 m[11,0,5] + 2 m[11,0,6] + 4 m[11,0,7] + 3 m[11,1,5]
   + m[11,1,7] - 50000 c[11,1,-1.0] >= -49995
 R4642: - 3324 m[11,0,4] + m[11,0,5] + 3324 m[11,0,7] + m[11,1,4]
   - 583 m[11,1,5] - 584 m[11,1,6] - 2740 m[11,1,7] - 50000 c[11,1,-1.0]
   >= -53907
 R4643: 15 m[11,0,4] - 2 m[11,0,5] + 3 m[11,0,6] - 10 m[11,0,7] - m[11,1,4]
   - 3 m[11,1,5] - 11 m[11,1,6] - 5 m[11,1,7] - 50000 c[11,1,-1.0]
   >= -50017
 R4644: - 5 m[11,0,4] - 2 m[11,0,5] + m[11,0,6] - 10 m[11,0,7]
   - 3 m[11,1,4] - 3 m[11,1,5] - 11 m[11,1,6] + 15 m[11,1,7]
   - 50000 c[11,1,-1.0] >= -50019
 R4645: c[11,2,0.0] + c[11,2,-3.0] + c[11,2,-2.0] + c[11,2,-1.41504]
   + c[11,2,-1.0] = 1
 R4646: - m[11,0,8] - m[11,0,9] - m[11,0,10] - m[11,0,11] - m[11,1,8]
   - m[11,1,9] - m[11,1,10] - m[11,1,11] - 50000 c[11,2,0.0] >= -50000
 R4647: c[11,2,-3.0] = 0
 R4648: - m[11,0,8] - m[11,0,11] - m[11,1,10] - m[11,1,11]
   - 50000 c[11,2,-2.0] >= -50003
 R4649: m[11,0,8] + 2 m[11,0,11] + m[11,1,11] - 50000 c[11,2,-2.0]
   >= -49998
 R4650: 3 m[11,0,8] + m[11,0,11] + 4 m[11,1,10] + 2 m[11,1,11]
   - 50000 c[11,2,-2.0] >= -49995
 R4651: c[11,2,-1.41504] = 0
 R4652: - 6649 m[11,0,8] + 3 m[11,0,9] - 7 m[11,0,10] + 4 m[11,0,11]
   - 5 m[11,1,8] - m[11,1,9] + 6639 m[11,1,10] - 6648 m[11,1,11]
   - 50000 c[11,2,-1.0] >= -56657
 R4653: 10 m[11,0,8] + 2 m[11,0,9] - 6641 m[11,0,10] - 6649 m[11,0,11]
   + m[11,1,8] + 3 m[11,1,9] - 6647 m[11,1,10] - 3 m[11,1,11]
   - 50000 c[11,2,-1.0] >= -63289
 R4654: 6 m[11,0,8] - m[11,0,9] - 2 m[11,0,10] + 4 m[11,0,11] - 2 m[11,1,9]
   + 5 m[11,1,10] + 4 m[11,1,11] - 50000 c[11,2,-1.0] >= -49999
 R4655: - 17 m[11,0,8] - 4 m[11,0,9] + 5 m[11,0,10] - m[11,0,11]
   + 4 m[11,1,8] + 2 m[11,1,9] + 13 m[11,1,10] - 10 m[11,1,11]
   - 50000 c[11,2,-1.0] >= -50015
 R4656: - 2 m[11,0,8] + 4 m[11,0,9] + 11 m[11,0,10] - 2 m[11,0,11]
   + 9 m[11,1,8] + 9 m[11,1,9] + 14 m[11,1,10] + 14 m[11,1,11]
   - 50000 c[11,2,-1.0] >= -49984
 R4657: 5 m[11,0,8] + 2 m[11,0,9] + 2 m[11,0,10] + 4 m[11,0,11]
   + 3 m[11,1,9] + m[11,1,11] - 50000 c[11,2,-1.0] >= -49995
 R4658: - 3324 m[11,0,8] + m[11,0,9] + 3324 m[11,0,11] + m[11,1,8]
   - 583 m[11,1,9] - 584 m[11,1,10] - 2740 m[11,1,11] - 50000 c[11,2,-1.0]
   >= -53907
 R4659: 15 m[11,0,8] - 2 m[11,0,9] + 3 m[11,0,10] - 10 m[11,0,11]
   - m[11,1,8] - 3 m[11,1,9] - 11 m[11,1,10] - 5 m[11,1,11]
   - 50000 c[11,2,-1.0] >= -50017
 R4660: - 5 m[11,0,8] - 2 m[11,0,9] + m[11,0,10] - 10 m[11,0,11]
   - 3 m[11,1,8] - 3 m[11,1,9] - 11 m[11,1,10] + 15 m[11,1,11]
   - 50000 c[11,2,-1.0] >= -50019
 R4661: c[11,3,0.0] + c[11,3,-3.0] + c[11,3,-2.0] + c[11,3,-1.41504]
   + c[11,3,-1.0] = 1
 R4662: c[11,3,0.0] = 0
 R4663: m[11,0,12] + m[11,0,13] - m[11,1,15] - 50000 c[11,3,-3.0]
   >= -50000
 R4664: m[11,0,12] - m[11,0,13] + m[11,1,15] - 50000 c[11,3,-3.0]
   >= -50000
 R4665: - m[11,0,12] - m[11,0,13] - m[11,1,15] - 50000 c[11,3,-3.0]
   >= -50002
 R4666: - m[11,0,12] + m[11,0,13] + m[11,1,15] - 50000 c[11,3,-3.0]
   >= -50000
 R4667: c[11,3,-2.0] = 0
 R4668: c[11,3,-1.41504] = 0
 R4669: c[11,3,-1.0] = 0
 R4670: c[11,4,0.0] + c[11,4,-3.0] + c[11,4,-2.0] + c[11,4,-1.41504]
   + c[11,4,-1.0] = 1
 R4671: - m[11,0,16] - m[11,0,17] - m[11,0,18] - m[11,0,19] - m[11,1,16]
   - m[11,1,17] - m[11,1,18] - m[11,1,19] - 50000 c[11,4,0.0] >= -50000
 R4672: c[11,4,-3.0] = 0
 R4673: - m[11,0,16] - m[11,0,19] - m[11,1,18] - m[11,1,19]
   - 50000 c[11,4,-2.0] >= -50003
 R4674: m[11,0,16] + 2 m[11,0,19] + m[11,1,19] - 50000 c[11,4,-2.0]
   >= -49998
 R4675: 3 m[11,0,16] + m[11,0,19] + 4 m[11,1,18] + 2 m[11,1,19]
   - 50000 c[11,4,-2.0] >= -49995
 R4676: c[11,4,-1.41504] = 0
 R4677: - 6649 m[11,0,16] + 3 m[11,0,17] - 7 m[11,0,18] + 4 m[11,0,19]
   - 5 m[11,1,16] - m[11,1,17] + 6639 m[11,1,18] - 6648 m[11,1,19]
   - 50000 c[11,4,-1.0] >= -56657
 R4678: 10 m[11,0,16] + 2 m[11,0,17] - 6641 m[11,0,18] - 6649 m[11,0,19]
   + m[11,1,16] + 3 m[11,1,17] - 6647 m[11,1,18] - 3 m[11,1,19]
   - 50000 c[11,4,-1.0] >= -63289
 R4679: 6 m[11,0,16] - m[11,0,17] - 2 m[11,0,18] + 4 m[11,0,19]
   - 2 m[11,1,17] + 5 m[11,1,18] + 4 m[11,1,19] - 50000 c[11,4,-1.0]
   >= -49999
 R4680: - 17 m[11,0,16] - 4 m[11,0,17] + 5 m[11,0,18] - m[11,0,19]
   + 4 m[11,1,16] + 2 m[11,1,17] + 13 m[11,1,18] - 10 m[11,1,19]
   - 50000 c[11,4,-1.0] >= -50015
 R4681: - 2 m[11,0,16] + 4 m[11,0,17] + 11 m[11,0,18] - 2 m[11,0,19]
   + 9 m[11,1,16] + 9 m[11,1,17] + 14 m[11,1,18] + 14 m[11,1,19]
   - 50000 c[11,4,-1.0] >= -49984
 R4682: 5 m[11,0,16] + 2 m[11,0,17] + 2 m[11,0,18] + 4 m[11,0,19]
   + 3 m[11,1,17] + m[11,1,19] - 50000 c[11,4,-1.0] >= -49995
 R4683: - 3324 m[11,0,16] + m[11,0,17] + 3324 m[11,0,19] + m[11,1,16]
   - 583 m[11,1,17] - 584 m[11,1,18] - 2740 m[11,1,19] - 50000 c[11,4,-1.0]
   >= -53907
 R4684: 15 m[11,0,16] - 2 m[11,0,17] + 3 m[11,0,18] - 10 m[11,0,19]
   - m[11,1,16] - 3 m[11,1,17] - 11 m[11,1,18] - 5 m[11,1,19]
   - 50000 c[11,4,-1.0] >= -50017
 R4685: - 5 m[11,0,16] - 2 m[11,0,17] + m[11,0,18] - 10 m[11,0,19]
   - 3 m[11,1,16] - 3 m[11,1,17] - 11 m[11,1,18] + 15 m[11,1,19]
   - 50000 c[11,4,-1.0] >= -50019
 R4686: c[11,5,0.0] + c[11,5,-3.0] + c[11,5,-2.0] + c[11,5,-1.41504]
   + c[11,5,-1.0] = 1
 R4687: - m[11,0,20] - m[11,0,21] - m[11,0,22] - m[11,0,23] - m[11,1,20]
   - m[11,1,21] - m[11,1,22] - m[11,1,23] - 50000 c[11,5,0.0] >= -50000
 R4688: c[11,5,-3.0] = 0
 R4689: - m[11,0,20] - m[11,0,23] - m[11,1,22] - m[11,1,23]
   - 50000 c[11,5,-2.0] >= -50003
 R4690: m[11,0,20] + 2 m[11,0,23] + m[11,1,23] - 50000 c[11,5,-2.0]
   >= -49998
 R4691: 3 m[11,0,20] + m[11,0,23] + 4 m[11,1,22] + 2 m[11,1,23]
   - 50000 c[11,5,-2.0] >= -49995
 R4692: c[11,5,-1.41504] = 0
 R4693: - 6649 m[11,0,20] + 3 m[11,0,21] - 7 m[11,0,22] + 4 m[11,0,23]
   - 5 m[11,1,20] - m[11,1,21] + 6639 m[11,1,22] - 6648 m[11,1,23]
   - 50000 c[11,5,-1.0] >= -56657
 R4694: 10 m[11,0,20] + 2 m[11,0,21] - 6641 m[11,0,22] - 6649 m[11,0,23]
   + m[11,1,20] + 3 m[11,1,21] - 6647 m[11,1,22] - 3 m[11,1,23]
   - 50000 c[11,5,-1.0] >= -63289
 R4695: 6 m[11,0,20] - m[11,0,21] - 2 m[11,0,22] + 4 m[11,0,23]
   - 2 m[11,1,21] + 5 m[11,1,22] + 4 m[11,1,23] - 50000 c[11,5,-1.0]
   >= -49999
 R4696: - 17 m[11,0,20] - 4 m[11,0,21] + 5 m[11,0,22] - m[11,0,23]
   + 4 m[11,1,20] + 2 m[11,1,21] + 13 m[11,1,22] - 10 m[11,1,23]
   - 50000 c[11,5,-1.0] >= -50015
 R4697: - 2 m[11,0,20] + 4 m[11,0,21] + 11 m[11,0,22] - 2 m[11,0,23]
   + 9 m[11,1,20] + 9 m[11,1,21] + 14 m[11,1,22] + 14 m[11,1,23]
   - 50000 c[11,5,-1.0] >= -49984
 R4698: 5 m[11,0,20] + 2 m[11,0,21] + 2 m[11,0,22] + 4 m[11,0,23]
   + 3 m[11,1,21] + m[11,1,23] - 50000 c[11,5,-1.0] >= -49995
 R4699: - 3324 m[11,0,20] + m[11,0,21] + 3324 m[11,0,23] + m[11,1,20]
   - 583 m[11,1,21] - 584 m[11,1,22] - 2740 m[11,1,23] - 50000 c[11,5,-1.0]
   >= -53907
 R4700: 15 m[11,0,20] - 2 m[11,0,21] + 3 m[11,0,22] - 10 m[11,0,23]
   - m[11,1,20] - 3 m[11,1,21] - 11 m[11,1,22] - 5 m[11,1,23]
   - 50000 c[11,5,-1.0] >= -50017
 R4701: - 5 m[11,0,20] - 2 m[11,0,21] + m[11,0,22] - 10 m[11,0,23]
   - 3 m[11,1,20] - 3 m[11,1,21] - 11 m[11,1,22] + 15 m[11,1,23]
   - 50000 c[11,5,-1.0] >= -50019
 R4702: c[11,6,0.0] + c[11,6,-3.0] + c[11,6,-2.0] + c[11,6,-1.41504]
   + c[11,6,-1.0] = 1
 R4703: - m[11,0,24] - m[11,0,25] - m[11,0,26] - m[11,0,27] - m[11,1,24]
   - m[11,1,25] - m[11,1,26] - m[11,1,27] - 50000 c[11,6,0.0] >= -50000
 R4704: c[11,6,-3.0] = 0
 R4705: - m[11,0,24] - m[11,0,27] - m[11,1,26] - m[11,1,27]
   - 50000 c[11,6,-2.0] >= -50003
 R4706: m[11,0,24] + 2 m[11,0,27] + m[11,1,27] - 50000 c[11,6,-2.0]
   >= -49998
 R4707: 3 m[11,0,24] + m[11,0,27] + 4 m[11,1,26] + 2 m[11,1,27]
   - 50000 c[11,6,-2.0] >= -49995
 R4708: c[11,6,-1.41504] = 0
 R4709: - 6649 m[11,0,24] + 3 m[11,0,25] - 7 m[11,0,26] + 4 m[11,0,27]
   - 5 m[11,1,24] - m[11,1,25] + 6639 m[11,1,26] - 6648 m[11,1,27]
   - 50000 c[11,6,-1.0] >= -56657
 R4710: 10 m[11,0,24] + 2 m[11,0,25] - 6641 m[11,0,26] - 6649 m[11,0,27]
   + m[11,1,24] + 3 m[11,1,25] - 6647 m[11,1,26] - 3 m[11,1,27]
   - 50000 c[11,6,-1.0] >= -63289
 R4711: 6 m[11,0,24] - m[11,0,25] - 2 m[11,0,26] + 4 m[11,0,27]
   - 2 m[11,1,25] + 5 m[11,1,26] + 4 m[11,1,27] - 50000 c[11,6,-1.0]
   >= -49999
 R4712: - 17 m[11,0,24] - 4 m[11,0,25] + 5 m[11,0,26] - m[11,0,27]
   + 4 m[11,1,24] + 2 m[11,1,25] + 13 m[11,1,26] - 10 m[11,1,27]
   - 50000 c[11,6,-1.0] >= -50015
 R4713: - 2 m[11,0,24] + 4 m[11,0,25] + 11 m[11,0,26] - 2 m[11,0,27]
   + 9 m[11,1,24] + 9 m[11,1,25] + 14 m[11,1,26] + 14 m[11,1,27]
   - 50000 c[11,6,-1.0] >= -49984
 R4714: 5 m[11,0,24] + 2 m[11,0,25] + 2 m[11,0,26] + 4 m[11,0,27]
   + 3 m[11,1,25] + m[11,1,27] - 50000 c[11,6,-1.0] >= -49995
 R4715: - 3324 m[11,0,24] + m[11,0,25] + 3324 m[11,0,27] + m[11,1,24]
   - 583 m[11,1,25] - 584 m[11,1,26] - 2740 m[11,1,27] - 50000 c[11,6,-1.0]
   >= -53907
 R4716: 15 m[11,0,24] - 2 m[11,0,25] + 3 m[11,0,26] - 10 m[11,0,27]
   - m[11,1,24] - 3 m[11,1,25] - 11 m[11,1,26] - 5 m[11,1,27]
   - 50000 c[11,6,-1.0] >= -50017
 R4717: - 5 m[11,0,24] - 2 m[11,0,25] + m[11,0,26] - 10 m[11,0,27]
   - 3 m[11,1,24] - 3 m[11,1,25] - 11 m[11,1,26] + 15 m[11,1,27]
   - 50000 c[11,6,-1.0] >= -50019
 R4718: c[11,7,0.0] + c[11,7,-3.0] + c[11,7,-2.0] + c[11,7,-1.41504]
   + c[11,7,-1.0] = 1
 R4719: - m[11,0,28] - m[11,0,29] - m[11,0,30] - m[11,0,31] - m[11,1,28]
   - m[11,1,29] - m[11,1,30] - m[11,1,31] - 50000 c[11,7,0.0] >= -50000
 R4720: c[11,7,-3.0] = 0
 R4721: - m[11,0,28] - m[11,0,31] - m[11,1,30] - m[11,1,31]
   - 50000 c[11,7,-2.0] >= -50003
 R4722: m[11,0,28] + 2 m[11,0,31] + m[11,1,31] - 50000 c[11,7,-2.0]
   >= -49998
 R4723: 3 m[11,0,28] + m[11,0,31] + 4 m[11,1,30] + 2 m[11,1,31]
   - 50000 c[11,7,-2.0] >= -49995
 R4724: c[11,7,-1.41504] = 0
 R4725: - 6649 m[11,0,28] + 3 m[11,0,29] - 7 m[11,0,30] + 4 m[11,0,31]
   - 5 m[11,1,28] - m[11,1,29] + 6639 m[11,1,30] - 6648 m[11,1,31]
   - 50000 c[11,7,-1.0] >= -56657
 R4726: 10 m[11,0,28] + 2 m[11,0,29] - 6641 m[11,0,30] - 6649 m[11,0,31]
   + m[11,1,28] + 3 m[11,1,29] - 6647 m[11,1,30] - 3 m[11,1,31]
   - 50000 c[11,7,-1.0] >= -63289
 R4727: 6 m[11,0,28] - m[11,0,29] - 2 m[11,0,30] + 4 m[11,0,31]
   - 2 m[11,1,29] + 5 m[11,1,30] + 4 m[11,1,31] - 50000 c[11,7,-1.0]
   >= -49999
 R4728: - 17 m[11,0,28] - 4 m[11,0,29] + 5 m[11,0,30] - m[11,0,31]
   + 4 m[11,1,28] + 2 m[11,1,29] + 13 m[11,1,30] - 10 m[11,1,31]
   - 50000 c[11,7,-1.0] >= -50015
 R4729: - 2 m[11,0,28] + 4 m[11,0,29] + 11 m[11,0,30] - 2 m[11,0,31]
   + 9 m[11,1,28] + 9 m[11,1,29] + 14 m[11,1,30] + 14 m[11,1,31]
   - 50000 c[11,7,-1.0] >= -49984
 R4730: 5 m[11,0,28] + 2 m[11,0,29] + 2 m[11,0,30] + 4 m[11,0,31]
   + 3 m[11,1,29] + m[11,1,31] - 50000 c[11,7,-1.0] >= -49995
 R4731: - 3324 m[11,0,28] + m[11,0,29] + 3324 m[11,0,31] + m[11,1,28]
   - 583 m[11,1,29] - 584 m[11,1,30] - 2740 m[11,1,31] - 50000 c[11,7,-1.0]
   >= -53907
 R4732: 15 m[11,0,28] - 2 m[11,0,29] + 3 m[11,0,30] - 10 m[11,0,31]
   - m[11,1,28] - 3 m[11,1,29] - 11 m[11,1,30] - 5 m[11,1,31]
   - 50000 c[11,7,-1.0] >= -50017
 R4733: - 5 m[11,0,28] - 2 m[11,0,29] + m[11,0,30] - 10 m[11,0,31]
   - 3 m[11,1,28] - 3 m[11,1,29] - 11 m[11,1,30] + 15 m[11,1,31]
   - 50000 c[11,7,-1.0] >= -50019
 R4734: c[11,8,0.0] + c[11,8,-3.0] + c[11,8,-2.0] + c[11,8,-1.41504]
   + c[11,8,-1.0] = 1
 R4735: - m[11,0,32] - m[11,0,33] - m[11,0,34] - m[11,0,35] - m[11,1,32]
   - m[11,1,33] - m[11,1,34] - m[11,1,35] - 50000 c[11,8,0.0] >= -50000
 R4736: c[11,8,-3.0] = 0
 R4737: - m[11,0,32] - m[11,0,35] - m[11,1,34] - m[11,1,35]
   - 50000 c[11,8,-2.0] >= -50003
 R4738: m[11,0,32] + 2 m[11,0,35] + m[11,1,35] - 50000 c[11,8,-2.0]
   >= -49998
 R4739: 3 m[11,0,32] + m[11,0,35] + 4 m[11,1,34] + 2 m[11,1,35]
   - 50000 c[11,8,-2.0] >= -49995
 R4740: c[11,8,-1.41504] = 0
 R4741: - 6649 m[11,0,32] + 3 m[11,0,33] - 7 m[11,0,34] + 4 m[11,0,35]
   - 5 m[11,1,32] - m[11,1,33] + 6639 m[11,1,34] - 6648 m[11,1,35]
   - 50000 c[11,8,-1.0] >= -56657
 R4742: 10 m[11,0,32] + 2 m[11,0,33] - 6641 m[11,0,34] - 6649 m[11,0,35]
   + m[11,1,32] + 3 m[11,1,33] - 6647 m[11,1,34] - 3 m[11,1,35]
   - 50000 c[11,8,-1.0] >= -63289
 R4743: 6 m[11,0,32] - m[11,0,33] - 2 m[11,0,34] + 4 m[11,0,35]
   - 2 m[11,1,33] + 5 m[11,1,34] + 4 m[11,1,35] - 50000 c[11,8,-1.0]
   >= -49999
 R4744: - 17 m[11,0,32] - 4 m[11,0,33] + 5 m[11,0,34] - m[11,0,35]
   + 4 m[11,1,32] + 2 m[11,1,33] + 13 m[11,1,34] - 10 m[11,1,35]
   - 50000 c[11,8,-1.0] >= -50015
 R4745: - 2 m[11,0,32] + 4 m[11,0,33] + 11 m[11,0,34] - 2 m[11,0,35]
   + 9 m[11,1,32] + 9 m[11,1,33] + 14 m[11,1,34] + 14 m[11,1,35]
   - 50000 c[11,8,-1.0] >= -49984
 R4746: 5 m[11,0,32] + 2 m[11,0,33] + 2 m[11,0,34] + 4 m[11,0,35]
   + 3 m[11,1,33] + m[11,1,35] - 50000 c[11,8,-1.0] >= -49995
 R4747: - 3324 m[11,0,32] + m[11,0,33] + 3324 m[11,0,35] + m[11,1,32]
   - 583 m[11,1,33] - 584 m[11,1,34] - 2740 m[11,1,35] - 50000 c[11,8,-1.0]
   >= -53907
 R4748: 15 m[11,0,32] - 2 m[11,0,33] + 3 m[11,0,34] - 10 m[11,0,35]
   - m[11,1,32] - 3 m[11,1,33] - 11 m[11,1,34] - 5 m[11,1,35]
   - 50000 c[11,8,-1.0] >= -50017
 R4749: - 5 m[11,0,32] - 2 m[11,0,33] + m[11,0,34] - 10 m[11,0,35]
   - 3 m[11,1,32] - 3 m[11,1,33] - 11 m[11,1,34] + 15 m[11,1,35]
   - 50000 c[11,8,-1.0] >= -50019
 R4750: c[11,9,0.0] + c[11,9,-3.0] + c[11,9,-2.0] + c[11,9,-1.41504]
   + c[11,9,-1.0] = 1
 R4751: - m[11,0,36] - m[11,0,37] - m[11,0,38] - m[11,0,39] - m[11,1,36]
   - m[11,1,37] - m[11,1,38] - m[11,1,39] - 50000 c[11,9,0.0] >= -50000
 R4752: c[11,9,-3.0] = 0
 R4753: - m[11,0,36] - m[11,0,39] - m[11,1,38] - m[11,1,39]
   - 50000 c[11,9,-2.0] >= -50003
 R4754: m[11,0,36] + 2 m[11,0,39] + m[11,1,39] - 50000 c[11,9,-2.0]
   >= -49998
 R4755: 3 m[11,0,36] + m[11,0,39] + 4 m[11,1,38] + 2 m[11,1,39]
   - 50000 c[11,9,-2.0] >= -49995
 R4756: c[11,9,-1.41504] = 0
 R4757: - 6649 m[11,0,36] + 3 m[11,0,37] - 7 m[11,0,38] + 4 m[11,0,39]
   - 5 m[11,1,36] - m[11,1,37] + 6639 m[11,1,38] - 6648 m[11,1,39]
   - 50000 c[11,9,-1.0] >= -56657
 R4758: 10 m[11,0,36] + 2 m[11,0,37] - 6641 m[11,0,38] - 6649 m[11,0,39]
   + m[11,1,36] + 3 m[11,1,37] - 6647 m[11,1,38] - 3 m[11,1,39]
   - 50000 c[11,9,-1.0] >= -63289
 R4759: 6 m[11,0,36] - m[11,0,37] - 2 m[11,0,38] + 4 m[11,0,39]
   - 2 m[11,1,37] + 5 m[11,1,38] + 4 m[11,1,39] - 50000 c[11,9,-1.0]
   >= -49999
 R4760: - 17 m[11,0,36] - 4 m[11,0,37] + 5 m[11,0,38] - m[11,0,39]
   + 4 m[11,1,36] + 2 m[11,1,37] + 13 m[11,1,38] - 10 m[11,1,39]
   - 50000 c[11,9,-1.0] >= -50015
 R4761: - 2 m[11,0,36] + 4 m[11,0,37] + 11 m[11,0,38] - 2 m[11,0,39]
   + 9 m[11,1,36] + 9 m[11,1,37] + 14 m[11,1,38] + 14 m[11,1,39]
   - 50000 c[11,9,-1.0] >= -49984
 R4762: 5 m[11,0,36] + 2 m[11,0,37] + 2 m[11,0,38] + 4 m[11,0,39]
   + 3 m[11,1,37] + m[11,1,39] - 50000 c[11,9,-1.0] >= -49995
 R4763: - 3324 m[11,0,36] + m[11,0,37] + 3324 m[11,0,39] + m[11,1,36]
   - 583 m[11,1,37] - 584 m[11,1,38] - 2740 m[11,1,39] - 50000 c[11,9,-1.0]
   >= -53907
 R4764: 15 m[11,0,36] - 2 m[11,0,37] + 3 m[11,0,38] - 10 m[11,0,39]
   - m[11,1,36] - 3 m[11,1,37] - 11 m[11,1,38] - 5 m[11,1,39]
   - 50000 c[11,9,-1.0] >= -50017
 R4765: - 5 m[11,0,36] - 2 m[11,0,37] + m[11,0,38] - 10 m[11,0,39]
   - 3 m[11,1,36] - 3 m[11,1,37] - 11 m[11,1,38] + 15 m[11,1,39]
   - 50000 c[11,9,-1.0] >= -50019
 R4766: c[11,10,0.0] + c[11,10,-3.0] + c[11,10,-2.0] + c[11,10,-1.41504]
   + c[11,10,-1.0] = 1
 R4767: - m[11,0,40] - m[11,0,41] - m[11,0,42] - m[11,0,43] - m[11,1,40]
   - m[11,1,41] - m[11,1,42] - m[11,1,43] - 50000 c[11,10,0.0] >= -50000
 R4768: c[11,10,-3.0] = 0
 R4769: - m[11,0,40] - m[11,0,43] - m[11,1,42] - m[11,1,43]
   - 50000 c[11,10,-2.0] >= -50003
 R4770: m[11,0,40] + 2 m[11,0,43] + m[11,1,43] - 50000 c[11,10,-2.0]
   >= -49998
 R4771: 3 m[11,0,40] + m[11,0,43] + 4 m[11,1,42] + 2 m[11,1,43]
   - 50000 c[11,10,-2.0] >= -49995
 R4772: c[11,10,-1.41504] = 0
 R4773: - 6649 m[11,0,40] + 3 m[11,0,41] - 7 m[11,0,42] + 4 m[11,0,43]
   - 5 m[11,1,40] - m[11,1,41] + 6639 m[11,1,42] - 6648 m[11,1,43]
   - 50000 c[11,10,-1.0] >= -56657
 R4774: 10 m[11,0,40] + 2 m[11,0,41] - 6641 m[11,0,42] - 6649 m[11,0,43]
   + m[11,1,40] + 3 m[11,1,41] - 6647 m[11,1,42] - 3 m[11,1,43]
   - 50000 c[11,10,-1.0] >= -63289
 R4775: 6 m[11,0,40] - m[11,0,41] - 2 m[11,0,42] + 4 m[11,0,43]
   - 2 m[11,1,41] + 5 m[11,1,42] + 4 m[11,1,43] - 50000 c[11,10,-1.0]
   >= -49999
 R4776: - 17 m[11,0,40] - 4 m[11,0,41] + 5 m[11,0,42] - m[11,0,43]
   + 4 m[11,1,40] + 2 m[11,1,41] + 13 m[11,1,42] - 10 m[11,1,43]
   - 50000 c[11,10,-1.0] >= -50015
 R4777: - 2 m[11,0,40] + 4 m[11,0,41] + 11 m[11,0,42] - 2 m[11,0,43]
   + 9 m[11,1,40] + 9 m[11,1,41] + 14 m[11,1,42] + 14 m[11,1,43]
   - 50000 c[11,10,-1.0] >= -49984
 R4778: 5 m[11,0,40] + 2 m[11,0,41] + 2 m[11,0,42] + 4 m[11,0,43]
   + 3 m[11,1,41] + m[11,1,43] - 50000 c[11,10,-1.0] >= -49995
 R4779: - 3324 m[11,0,40] + m[11,0,41] + 3324 m[11,0,43] + m[11,1,40]
   - 583 m[11,1,41] - 584 m[11,1,42] - 2740 m[11,1,43]
   - 50000 c[11,10,-1.0] >= -53907
 R4780: 15 m[11,0,40] - 2 m[11,0,41] + 3 m[11,0,42] - 10 m[11,0,43]
   - m[11,1,40] - 3 m[11,1,41] - 11 m[11,1,42] - 5 m[11,1,43]
   - 50000 c[11,10,-1.0] >= -50017
 R4781: - 5 m[11,0,40] - 2 m[11,0,41] + m[11,0,42] - 10 m[11,0,43]
   - 3 m[11,1,40] - 3 m[11,1,41] - 11 m[11,1,42] + 15 m[11,1,43]
   - 50000 c[11,10,-1.0] >= -50019
 R4782: c[11,11,0.0] + c[11,11,-3.0] + c[11,11,-2.0] + c[11,11,-1.41504]
   + c[11,11,-1.0] = 1
 R4783: - m[11,0,44] - m[11,0,45] - m[11,0,46] - m[11,0,47] - m[11,1,44]
   - m[11,1,45] - m[11,1,46] - m[11,1,47] - 50000 c[11,11,0.0] >= -50000
 R4784: c[11,11,-3.0] = 0
 R4785: - m[11,0,44] - m[11,0,47] - m[11,1,46] - m[11,1,47]
   - 50000 c[11,11,-2.0] >= -50003
 R4786: m[11,0,44] + 2 m[11,0,47] + m[11,1,47] - 50000 c[11,11,-2.0]
   >= -49998
 R4787: 3 m[11,0,44] + m[11,0,47] + 4 m[11,1,46] + 2 m[11,1,47]
   - 50000 c[11,11,-2.0] >= -49995
 R4788: c[11,11,-1.41504] = 0
 R4789: - 6649 m[11,0,44] + 3 m[11,0,45] - 7 m[11,0,46] + 4 m[11,0,47]
   - 5 m[11,1,44] - m[11,1,45] + 6639 m[11,1,46] - 6648 m[11,1,47]
   - 50000 c[11,11,-1.0] >= -56657
 R4790: 10 m[11,0,44] + 2 m[11,0,45] - 6641 m[11,0,46] - 6649 m[11,0,47]
   + m[11,1,44] + 3 m[11,1,45] - 6647 m[11,1,46] - 3 m[11,1,47]
   - 50000 c[11,11,-1.0] >= -63289
 R4791: 6 m[11,0,44] - m[11,0,45] - 2 m[11,0,46] + 4 m[11,0,47]
   - 2 m[11,1,45] + 5 m[11,1,46] + 4 m[11,1,47] - 50000 c[11,11,-1.0]
   >= -49999
 R4792: - 17 m[11,0,44] - 4 m[11,0,45] + 5 m[11,0,46] - m[11,0,47]
   + 4 m[11,1,44] + 2 m[11,1,45] + 13 m[11,1,46] - 10 m[11,1,47]
   - 50000 c[11,11,-1.0] >= -50015
 R4793: - 2 m[11,0,44] + 4 m[11,0,45] + 11 m[11,0,46] - 2 m[11,0,47]
   + 9 m[11,1,44] + 9 m[11,1,45] + 14 m[11,1,46] + 14 m[11,1,47]
   - 50000 c[11,11,-1.0] >= -49984
 R4794: 5 m[11,0,44] + 2 m[11,0,45] + 2 m[11,0,46] + 4 m[11,0,47]
   + 3 m[11,1,45] + m[11,1,47] - 50000 c[11,11,-1.0] >= -49995
 R4795: - 3324 m[11,0,44] + m[11,0,45] + 3324 m[11,0,47] + m[11,1,44]
   - 583 m[11,1,45] - 584 m[11,1,46] - 2740 m[11,1,47]
   - 50000 c[11,11,-1.0] >= -53907
 R4796: 15 m[11,0,44] - 2 m[11,0,45] + 3 m[11,0,46] - 10 m[11,0,47]
   - m[11,1,44] - 3 m[11,1,45] - 11 m[11,1,46] - 5 m[11,1,47]
   - 50000 c[11,11,-1.0] >= -50017
 R4797: - 5 m[11,0,44] - 2 m[11,0,45] + m[11,0,46] - 10 m[11,0,47]
   - 3 m[11,1,44] - 3 m[11,1,45] - 11 m[11,1,46] + 15 m[11,1,47]
   - 50000 c[11,11,-1.0] >= -50019
 R4798: c[11,12,0.0] + c[11,12,-3.0] + c[11,12,-2.0] + c[11,12,-1.41504]
   + c[11,12,-1.0] = 1
 R4799: - m[11,0,48] - m[11,0,49] - m[11,0,50] - m[11,0,51] - m[11,1,48]
   - m[11,1,49] - m[11,1,50] - m[11,1,51] - 50000 c[11,12,0.0] >= -50000
 R4800: c[11,12,-3.0] = 0
 R4801: - m[11,0,48] - m[11,0,51] - m[11,1,50] - m[11,1,51]
   - 50000 c[11,12,-2.0] >= -50003
 R4802: m[11,0,48] + 2 m[11,0,51] + m[11,1,51] - 50000 c[11,12,-2.0]
   >= -49998
 R4803: 3 m[11,0,48] + m[11,0,51] + 4 m[11,1,50] + 2 m[11,1,51]
   - 50000 c[11,12,-2.0] >= -49995
 R4804: c[11,12,-1.41504] = 0
 R4805: - 6649 m[11,0,48] + 3 m[11,0,49] - 7 m[11,0,50] + 4 m[11,0,51]
   - 5 m[11,1,48] - m[11,1,49] + 6639 m[11,1,50] - 6648 m[11,1,51]
   - 50000 c[11,12,-1.0] >= -56657
 R4806: 10 m[11,0,48] + 2 m[11,0,49] - 6641 m[11,0,50] - 6649 m[11,0,51]
   + m[11,1,48] + 3 m[11,1,49] - 6647 m[11,1,50] - 3 m[11,1,51]
   - 50000 c[11,12,-1.0] >= -63289
 R4807: 6 m[11,0,48] - m[11,0,49] - 2 m[11,0,50] + 4 m[11,0,51]
   - 2 m[11,1,49] + 5 m[11,1,50] + 4 m[11,1,51] - 50000 c[11,12,-1.0]
   >= -49999
 R4808: - 17 m[11,0,48] - 4 m[11,0,49] + 5 m[11,0,50] - m[11,0,51]
   + 4 m[11,1,48] + 2 m[11,1,49] + 13 m[11,1,50] - 10 m[11,1,51]
   - 50000 c[11,12,-1.0] >= -50015
 R4809: - 2 m[11,0,48] + 4 m[11,0,49] + 11 m[11,0,50] - 2 m[11,0,51]
   + 9 m[11,1,48] + 9 m[11,1,49] + 14 m[11,1,50] + 14 m[11,1,51]
   - 50000 c[11,12,-1.0] >= -49984
 R4810: 5 m[11,0,48] + 2 m[11,0,49] + 2 m[11,0,50] + 4 m[11,0,51]
   + 3 m[11,1,49] + m[11,1,51] - 50000 c[11,12,-1.0] >= -49995
 R4811: - 3324 m[11,0,48] + m[11,0,49] + 3324 m[11,0,51] + m[11,1,48]
   - 583 m[11,1,49] - 584 m[11,1,50] - 2740 m[11,1,51]
   - 50000 c[11,12,-1.0] >= -53907
 R4812: 15 m[11,0,48] - 2 m[11,0,49] + 3 m[11,0,50] - 10 m[11,0,51]
   - m[11,1,48] - 3 m[11,1,49] - 11 m[11,1,50] - 5 m[11,1,51]
   - 50000 c[11,12,-1.0] >= -50017
 R4813: - 5 m[11,0,48] - 2 m[11,0,49] + m[11,0,50] - 10 m[11,0,51]
   - 3 m[11,1,48] - 3 m[11,1,49] - 11 m[11,1,50] + 15 m[11,1,51]
   - 50000 c[11,12,-1.0] >= -50019
 R4814: c[11,13,0.0] + c[11,13,-3.0] + c[11,13,-2.0] + c[11,13,-1.41504]
   + c[11,13,-1.0] = 1
 R4815: - m[11,0,52] - m[11,0,53] - m[11,0,54] - m[11,0,55] - m[11,1,52]
   - m[11,1,53] - m[11,1,54] - m[11,1,55] - 50000 c[11,13,0.0] >= -50000
 R4816: c[11,13,-3.0] = 0
 R4817: - m[11,0,52] - m[11,0,55] - m[11,1,54] - m[11,1,55]
   - 50000 c[11,13,-2.0] >= -50003
 R4818: m[11,0,52] + 2 m[11,0,55] + m[11,1,55] - 50000 c[11,13,-2.0]
   >= -49998
 R4819: 3 m[11,0,52] + m[11,0,55] + 4 m[11,1,54] + 2 m[11,1,55]
   - 50000 c[11,13,-2.0] >= -49995
 R4820: c[11,13,-1.41504] = 0
 R4821: - 6649 m[11,0,52] + 3 m[11,0,53] - 7 m[11,0,54] + 4 m[11,0,55]
   - 5 m[11,1,52] - m[11,1,53] + 6639 m[11,1,54] - 6648 m[11,1,55]
   - 50000 c[11,13,-1.0] >= -56657
 R4822: 10 m[11,0,52] + 2 m[11,0,53] - 6641 m[11,0,54] - 6649 m[11,0,55]
   + m[11,1,52] + 3 m[11,1,53] - 6647 m[11,1,54] - 3 m[11,1,55]
   - 50000 c[11,13,-1.0] >= -63289
 R4823: 6 m[11,0,52] - m[11,0,53] - 2 m[11,0,54] + 4 m[11,0,55]
   - 2 m[11,1,53] + 5 m[11,1,54] + 4 m[11,1,55] - 50000 c[11,13,-1.0]
   >= -49999
 R4824: - 17 m[11,0,52] - 4 m[11,0,53] + 5 m[11,0,54] - m[11,0,55]
   + 4 m[11,1,52] + 2 m[11,1,53] + 13 m[11,1,54] - 10 m[11,1,55]
   - 50000 c[11,13,-1.0] >= -50015
 R4825: - 2 m[11,0,52] + 4 m[11,0,53] + 11 m[11,0,54] - 2 m[11,0,55]
   + 9 m[11,1,52] + 9 m[11,1,53] + 14 m[11,1,54] + 14 m[11,1,55]
   - 50000 c[11,13,-1.0] >= -49984
 R4826: 5 m[11,0,52] + 2 m[11,0,53] + 2 m[11,0,54] + 4 m[11,0,55]
   + 3 m[11,1,53] + m[11,1,55] - 50000 c[11,13,-1.0] >= -49995
 R4827: - 3324 m[11,0,52] + m[11,0,53] + 3324 m[11,0,55] + m[11,1,52]
   - 583 m[11,1,53] - 584 m[11,1,54] - 2740 m[11,1,55]
   - 50000 c[11,13,-1.0] >= -53907
 R4828: 15 m[11,0,52] - 2 m[11,0,53] + 3 m[11,0,54] - 10 m[11,0,55]
   - m[11,1,52] - 3 m[11,1,53] - 11 m[11,1,54] - 5 m[11,1,55]
   - 50000 c[11,13,-1.0] >= -50017
 R4829: - 5 m[11,0,52] - 2 m[11,0,53] + m[11,0,54] - 10 m[11,0,55]
   - 3 m[11,1,52] - 3 m[11,1,53] - 11 m[11,1,54] + 15 m[11,1,55]
   - 50000 c[11,13,-1.0] >= -50019
 R4830: c[11,14,0.0] + c[11,14,-3.0] + c[11,14,-2.0] + c[11,14,-1.41504]
   + c[11,14,-1.0] = 1
 R4831: - m[11,0,56] - m[11,0,57] - m[11,0,58] - m[11,0,59] - m[11,1,56]
   - m[11,1,57] - m[11,1,58] - m[11,1,59] - 50000 c[11,14,0.0] >= -50000
 R4832: c[11,14,-3.0] = 0
 R4833: - m[11,0,56] - m[11,0,59] - m[11,1,58] - m[11,1,59]
   - 50000 c[11,14,-2.0] >= -50003
 R4834: m[11,0,56] + 2 m[11,0,59] + m[11,1,59] - 50000 c[11,14,-2.0]
   >= -49998
 R4835: 3 m[11,0,56] + m[11,0,59] + 4 m[11,1,58] + 2 m[11,1,59]
   - 50000 c[11,14,-2.0] >= -49995
 R4836: c[11,14,-1.41504] = 0
 R4837: - 6649 m[11,0,56] + 3 m[11,0,57] - 7 m[11,0,58] + 4 m[11,0,59]
   - 5 m[11,1,56] - m[11,1,57] + 6639 m[11,1,58] - 6648 m[11,1,59]
   - 50000 c[11,14,-1.0] >= -56657
 R4838: 10 m[11,0,56] + 2 m[11,0,57] - 6641 m[11,0,58] - 6649 m[11,0,59]
   + m[11,1,56] + 3 m[11,1,57] - 6647 m[11,1,58] - 3 m[11,1,59]
   - 50000 c[11,14,-1.0] >= -63289
 R4839: 6 m[11,0,56] - m[11,0,57] - 2 m[11,0,58] + 4 m[11,0,59]
   - 2 m[11,1,57] + 5 m[11,1,58] + 4 m[11,1,59] - 50000 c[11,14,-1.0]
   >= -49999
 R4840: - 17 m[11,0,56] - 4 m[11,0,57] + 5 m[11,0,58] - m[11,0,59]
   + 4 m[11,1,56] + 2 m[11,1,57] + 13 m[11,1,58] - 10 m[11,1,59]
   - 50000 c[11,14,-1.0] >= -50015
 R4841: - 2 m[11,0,56] + 4 m[11,0,57] + 11 m[11,0,58] - 2 m[11,0,59]
   + 9 m[11,1,56] + 9 m[11,1,57] + 14 m[11,1,58] + 14 m[11,1,59]
   - 50000 c[11,14,-1.0] >= -49984
 R4842: 5 m[11,0,56] + 2 m[11,0,57] + 2 m[11,0,58] + 4 m[11,0,59]
   + 3 m[11,1,57] + m[11,1,59] - 50000 c[11,14,-1.0] >= -49995
 R4843: - 3324 m[11,0,56] + m[11,0,57] + 3324 m[11,0,59] + m[11,1,56]
   - 583 m[11,1,57] - 584 m[11,1,58] - 2740 m[11,1,59]
   - 50000 c[11,14,-1.0] >= -53907
 R4844: 15 m[11,0,56] - 2 m[11,0,57] + 3 m[11,0,58] - 10 m[11,0,59]
   - m[11,1,56] - 3 m[11,1,57] - 11 m[11,1,58] - 5 m[11,1,59]
   - 50000 c[11,14,-1.0] >= -50017
 R4845: - 5 m[11,0,56] - 2 m[11,0,57] + m[11,0,58] - 10 m[11,0,59]
   - 3 m[11,1,56] - 3 m[11,1,57] - 11 m[11,1,58] + 15 m[11,1,59]
   - 50000 c[11,14,-1.0] >= -50019
 R4846: c[11,15,0.0] + c[11,15,-3.0] + c[11,15,-2.0] + c[11,15,-1.41504]
   + c[11,15,-1.0] = 1
 R4847: - m[11,0,60] - m[11,0,61] - m[11,0,62] - m[11,0,63] - m[11,1,60]
   - m[11,1,61] - m[11,1,62] - m[11,1,63] - 50000 c[11,15,0.0] >= -50000
 R4848: c[11,15,-3.0] = 0
 R4849: - m[11,0,60] - m[11,0,63] - m[11,1,62] - m[11,1,63]
   - 50000 c[11,15,-2.0] >= -50003
 R4850: m[11,0,60] + 2 m[11,0,63] + m[11,1,63] - 50000 c[11,15,-2.0]
   >= -49998
 R4851: 3 m[11,0,60] + m[11,0,63] + 4 m[11,1,62] + 2 m[11,1,63]
   - 50000 c[11,15,-2.0] >= -49995
 R4852: c[11,15,-1.41504] = 0
 R4853: - 6649 m[11,0,60] + 3 m[11,0,61] - 7 m[11,0,62] + 4 m[11,0,63]
   - 5 m[11,1,60] - m[11,1,61] + 6639 m[11,1,62] - 6648 m[11,1,63]
   - 50000 c[11,15,-1.0] >= -56657
 R4854: 10 m[11,0,60] + 2 m[11,0,61] - 6641 m[11,0,62] - 6649 m[11,0,63]
   + m[11,1,60] + 3 m[11,1,61] - 6647 m[11,1,62] - 3 m[11,1,63]
   - 50000 c[11,15,-1.0] >= -63289
 R4855: 6 m[11,0,60] - m[11,0,61] - 2 m[11,0,62] + 4 m[11,0,63]
   - 2 m[11,1,61] + 5 m[11,1,62] + 4 m[11,1,63] - 50000 c[11,15,-1.0]
   >= -49999
 R4856: - 17 m[11,0,60] - 4 m[11,0,61] + 5 m[11,0,62] - m[11,0,63]
   + 4 m[11,1,60] + 2 m[11,1,61] + 13 m[11,1,62] - 10 m[11,1,63]
   - 50000 c[11,15,-1.0] >= -50015
 R4857: - 2 m[11,0,60] + 4 m[11,0,61] + 11 m[11,0,62] - 2 m[11,0,63]
   + 9 m[11,1,60] + 9 m[11,1,61] + 14 m[11,1,62] + 14 m[11,1,63]
   - 50000 c[11,15,-1.0] >= -49984
 R4858: 5 m[11,0,60] + 2 m[11,0,61] + 2 m[11,0,62] + 4 m[11,0,63]
   + 3 m[11,1,61] + m[11,1,63] - 50000 c[11,15,-1.0] >= -49995
 R4859: - 3324 m[11,0,60] + m[11,0,61] + 3324 m[11,0,63] + m[11,1,60]
   - 583 m[11,1,61] - 584 m[11,1,62] - 2740 m[11,1,63]
   - 50000 c[11,15,-1.0] >= -53907
 R4860: 15 m[11,0,60] - 2 m[11,0,61] + 3 m[11,0,62] - 10 m[11,0,63]
   - m[11,1,60] - 3 m[11,1,61] - 11 m[11,1,62] - 5 m[11,1,63]
   - 50000 c[11,15,-1.0] >= -50017
 R4861: - 5 m[11,0,60] - 2 m[11,0,61] + m[11,0,62] - 10 m[11,0,63]
   - 3 m[11,1,60] - 3 m[11,1,61] - 11 m[11,1,62] + 15 m[11,1,63]
   - 50000 c[11,15,-1.0] >= -50019
 R4862: c[12,0,0.0] + c[12,0,-3.0] + c[12,0,-2.0] + c[12,0,-1.41504]
   + c[12,0,-1.0] = 1
 R4863: c[12,0,0.0] = 0
 R4864: - m[12,0,0] - m[12,0,3] - m[12,1,0] - 50000 c[12,0,-3.0] >= -50002
 R4865: m[12,0,0] - m[12,0,3] + m[12,1,0] - 50000 c[12,0,-3.0] >= -50000
 R4866: m[12,0,0] + m[12,0,3] - m[12,1,0] - 50000 c[12,0,-3.0] >= -50000
 R4867: - m[12,0,0] + m[12,0,3] + m[12,1,0] - 50000 c[12,0,-3.0] >= -50000
 R4868: c[12,0,-2.0] = 0
 R4869: c[12,0,-1.41504] = 0
 R4870: c[12,0,-1.0] = 0
 R4871: c[12,1,0.0] + c[12,1,-3.0] + c[12,1,-2.0] + c[12,1,-1.41504]
   + c[12,1,-1.0] = 1
 R4872: - m[12,0,4] - m[12,0,5] - m[12,0,6] - m[12,0,7] - m[12,1,4]
   - m[12,1,5] - m[12,1,6] - m[12,1,7] - 50000 c[12,1,0.0] >= -50000
 R4873: c[12,1,-3.0] = 0
 R4874: - m[12,0,4] - m[12,0,7] - m[12,1,6] - m[12,1,7]
   - 50000 c[12,1,-2.0] >= -50003
 R4875: m[12,0,4] + 2 m[12,0,7] + m[12,1,7] - 50000 c[12,1,-2.0] >= -49998
 R4876: 3 m[12,0,4] + m[12,0,7] + 4 m[12,1,6] + 2 m[12,1,7]
   - 50000 c[12,1,-2.0] >= -49995
 R4877: c[12,1,-1.41504] = 0
 R4878: - 6649 m[12,0,4] + 3 m[12,0,5] - 7 m[12,0,6] + 4 m[12,0,7]
   - 5 m[12,1,4] - m[12,1,5] + 6639 m[12,1,6] - 6648 m[12,1,7]
   - 50000 c[12,1,-1.0] >= -56657
 R4879: 10 m[12,0,4] + 2 m[12,0,5] - 6641 m[12,0,6] - 6649 m[12,0,7]
   + m[12,1,4] + 3 m[12,1,5] - 6647 m[12,1,6] - 3 m[12,1,7]
   - 50000 c[12,1,-1.0] >= -63289
 R4880: 6 m[12,0,4] - m[12,0,5] - 2 m[12,0,6] + 4 m[12,0,7] - 2 m[12,1,5]
   + 5 m[12,1,6] + 4 m[12,1,7] - 50000 c[12,1,-1.0] >= -49999
 R4881: - 17 m[12,0,4] - 4 m[12,0,5] + 5 m[12,0,6] - m[12,0,7]
   + 4 m[12,1,4] + 2 m[12,1,5] + 13 m[12,1,6] - 10 m[12,1,7]
   - 50000 c[12,1,-1.0] >= -50015
 R4882: - 2 m[12,0,4] + 4 m[12,0,5] + 11 m[12,0,6] - 2 m[12,0,7]
   + 9 m[12,1,4] + 9 m[12,1,5] + 14 m[12,1,6] + 14 m[12,1,7]
   - 50000 c[12,1,-1.0] >= -49984
 R4883: 5 m[12,0,4] + 2 m[12,0,5] + 2 m[12,0,6] + 4 m[12,0,7] + 3 m[12,1,5]
   + m[12,1,7] - 50000 c[12,1,-1.0] >= -49995
 R4884: - 3324 m[12,0,4] + m[12,0,5] + 3324 m[12,0,7] + m[12,1,4]
   - 583 m[12,1,5] - 584 m[12,1,6] - 2740 m[12,1,7] - 50000 c[12,1,-1.0]
   >= -53907
 R4885: 15 m[12,0,4] - 2 m[12,0,5] + 3 m[12,0,6] - 10 m[12,0,7] - m[12,1,4]
   - 3 m[12,1,5] - 11 m[12,1,6] - 5 m[12,1,7] - 50000 c[12,1,-1.0]
   >= -50017
 R4886: - 5 m[12,0,4] - 2 m[12,0,5] + m[12,0,6] - 10 m[12,0,7]
   - 3 m[12,1,4] - 3 m[12,1,5] - 11 m[12,1,6] + 15 m[12,1,7]
   - 50000 c[12,1,-1.0] >= -50019
 R4887: c[12,2,0.0] + c[12,2,-3.0] + c[12,2,-2.0] + c[12,2,-1.41504]
   + c[12,2,-1.0] = 1
 R4888: - m[12,0,8] - m[12,0,9] - m[12,0,10] - m[12,0,11] - m[12,1,8]
   - m[12,1,9] - m[12,1,10] - m[12,1,11] - 50000 c[12,2,0.0] >= -50000
 R4889: c[12,2,-3.0] = 0
 R4890: - m[12,0,8] - m[12,0,11] - m[12,1,10] - m[12,1,11]
   - 50000 c[12,2,-2.0] >= -50003
 R4891: m[12,0,8] + 2 m[12,0,11] + m[12,1,11] - 50000 c[12,2,-2.0]
   >= -49998
 R4892: 3 m[12,0,8] + m[12,0,11] + 4 m[12,1,10] + 2 m[12,1,11]
   - 50000 c[12,2,-2.0] >= -49995
 R4893: c[12,2,-1.41504] = 0
 R4894: - 6649 m[12,0,8] + 3 m[12,0,9] - 7 m[12,0,10] + 4 m[12,0,11]
   - 5 m[12,1,8] - m[12,1,9] + 6639 m[12,1,10] - 6648 m[12,1,11]
   - 50000 c[12,2,-1.0] >= -56657
 R4895: 10 m[12,0,8] + 2 m[12,0,9] - 6641 m[12,0,10] - 6649 m[12,0,11]
   + m[12,1,8] + 3 m[12,1,9] - 6647 m[12,1,10] - 3 m[12,1,11]
   - 50000 c[12,2,-1.0] >= -63289
 R4896: 6 m[12,0,8] - m[12,0,9] - 2 m[12,0,10] + 4 m[12,0,11] - 2 m[12,1,9]
   + 5 m[12,1,10] + 4 m[12,1,11] - 50000 c[12,2,-1.0] >= -49999
 R4897: - 17 m[12,0,8] - 4 m[12,0,9] + 5 m[12,0,10] - m[12,0,11]
   + 4 m[12,1,8] + 2 m[12,1,9] + 13 m[12,1,10] - 10 m[12,1,11]
   - 50000 c[12,2,-1.0] >= -50015
 R4898: - 2 m[12,0,8] + 4 m[12,0,9] + 11 m[12,0,10] - 2 m[12,0,11]
   + 9 m[12,1,8] + 9 m[12,1,9] + 14 m[12,1,10] + 14 m[12,1,11]
   - 50000 c[12,2,-1.0] >= -49984
 R4899: 5 m[12,0,8] + 2 m[12,0,9] + 2 m[12,0,10] + 4 m[12,0,11]
   + 3 m[12,1,9] + m[12,1,11] - 50000 c[12,2,-1.0] >= -49995
 R4900: - 3324 m[12,0,8] + m[12,0,9] + 3324 m[12,0,11] + m[12,1,8]
   - 583 m[12,1,9] - 584 m[12,1,10] - 2740 m[12,1,11] - 50000 c[12,2,-1.0]
   >= -53907
 R4901: 15 m[12,0,8] - 2 m[12,0,9] + 3 m[12,0,10] - 10 m[12,0,11]
   - m[12,1,8] - 3 m[12,1,9] - 11 m[12,1,10] - 5 m[12,1,11]
   - 50000 c[12,2,-1.0] >= -50017
 R4902: - 5 m[12,0,8] - 2 m[12,0,9] + m[12,0,10] - 10 m[12,0,11]
   - 3 m[12,1,8] - 3 m[12,1,9] - 11 m[12,1,10] + 15 m[12,1,11]
   - 50000 c[12,2,-1.0] >= -50019
 R4903: c[12,3,0.0] + c[12,3,-3.0] + c[12,3,-2.0] + c[12,3,-1.41504]
   + c[12,3,-1.0] = 1
 R4904: - m[12,0,12] - m[12,0,13] - m[12,0,14] - m[12,0,15] - m[12,1,12]
   - m[12,1,13] - m[12,1,14] - m[12,1,15] - 50000 c[12,3,0.0] >= -50000
 R4905: c[12,3,-3.0] = 0
 R4906: - m[12,0,12] - m[12,0,15] - m[12,1,14] - m[12,1,15]
   - 50000 c[12,3,-2.0] >= -50003
 R4907: m[12,0,12] + 2 m[12,0,15] + m[12,1,15] - 50000 c[12,3,-2.0]
   >= -49998
 R4908: 3 m[12,0,12] + m[12,0,15] + 4 m[12,1,14] + 2 m[12,1,15]
   - 50000 c[12,3,-2.0] >= -49995
 R4909: c[12,3,-1.41504] = 0
 R4910: - 6649 m[12,0,12] + 3 m[12,0,13] - 7 m[12,0,14] + 4 m[12,0,15]
   - 5 m[12,1,12] - m[12,1,13] + 6639 m[12,1,14] - 6648 m[12,1,15]
   - 50000 c[12,3,-1.0] >= -56657
 R4911: 10 m[12,0,12] + 2 m[12,0,13] - 6641 m[12,0,14] - 6649 m[12,0,15]
   + m[12,1,12] + 3 m[12,1,13] - 6647 m[12,1,14] - 3 m[12,1,15]
   - 50000 c[12,3,-1.0] >= -63289
 R4912: 6 m[12,0,12] - m[12,0,13] - 2 m[12,0,14] + 4 m[12,0,15]
   - 2 m[12,1,13] + 5 m[12,1,14] + 4 m[12,1,15] - 50000 c[12,3,-1.0]
   >= -49999
 R4913: - 17 m[12,0,12] - 4 m[12,0,13] + 5 m[12,0,14] - m[12,0,15]
   + 4 m[12,1,12] + 2 m[12,1,13] + 13 m[12,1,14] - 10 m[12,1,15]
   - 50000 c[12,3,-1.0] >= -50015
 R4914: - 2 m[12,0,12] + 4 m[12,0,13] + 11 m[12,0,14] - 2 m[12,0,15]
   + 9 m[12,1,12] + 9 m[12,1,13] + 14 m[12,1,14] + 14 m[12,1,15]
   - 50000 c[12,3,-1.0] >= -49984
 R4915: 5 m[12,0,12] + 2 m[12,0,13] + 2 m[12,0,14] + 4 m[12,0,15]
   + 3 m[12,1,13] + m[12,1,15] - 50000 c[12,3,-1.0] >= -49995
 R4916: - 3324 m[12,0,12] + m[12,0,13] + 3324 m[12,0,15] + m[12,1,12]
   - 583 m[12,1,13] - 584 m[12,1,14] - 2740 m[12,1,15] - 50000 c[12,3,-1.0]
   >= -53907
 R4917: 15 m[12,0,12] - 2 m[12,0,13] + 3 m[12,0,14] - 10 m[12,0,15]
   - m[12,1,12] - 3 m[12,1,13] - 11 m[12,1,14] - 5 m[12,1,15]
   - 50000 c[12,3,-1.0] >= -50017
 R4918: - 5 m[12,0,12] - 2 m[12,0,13] + m[12,0,14] - 10 m[12,0,15]
   - 3 m[12,1,12] - 3 m[12,1,13] - 11 m[12,1,14] + 15 m[12,1,15]
   - 50000 c[12,3,-1.0] >= -50019
 R4919: c[12,4,0.0] + c[12,4,-3.0] + c[12,4,-2.0] + c[12,4,-1.41504]
   + c[12,4,-1.0] = 1
 R4920: - m[12,0,16] - m[12,0,17] - m[12,0,18] - m[12,0,19] - m[12,1,16]
   - m[12,1,17] - m[12,1,18] - m[12,1,19] - 50000 c[12,4,0.0] >= -50000
 R4921: c[12,4,-3.0] = 0
 R4922: - m[12,0,16] - m[12,0,19] - m[12,1,18] - m[12,1,19]
   - 50000 c[12,4,-2.0] >= -50003
 R4923: m[12,0,16] + 2 m[12,0,19] + m[12,1,19] - 50000 c[12,4,-2.0]
   >= -49998
 R4924: 3 m[12,0,16] + m[12,0,19] + 4 m[12,1,18] + 2 m[12,1,19]
   - 50000 c[12,4,-2.0] >= -49995
 R4925: c[12,4,-1.41504] = 0
 R4926: - 6649 m[12,0,16] + 3 m[12,0,17] - 7 m[12,0,18] + 4 m[12,0,19]
   - 5 m[12,1,16] - m[12,1,17] + 6639 m[12,1,18] - 6648 m[12,1,19]
   - 50000 c[12,4,-1.0] >= -56657
 R4927: 10 m[12,0,16] + 2 m[12,0,17] - 6641 m[12,0,18] - 6649 m[12,0,19]
   + m[12,1,16] + 3 m[12,1,17] - 6647 m[12,1,18] - 3 m[12,1,19]
   - 50000 c[12,4,-1.0] >= -63289
 R4928: 6 m[12,0,16] - m[12,0,17] - 2 m[12,0,18] + 4 m[12,0,19]
   - 2 m[12,1,17] + 5 m[12,1,18] + 4 m[12,1,19] - 50000 c[12,4,-1.0]
   >= -49999
 R4929: - 17 m[12,0,16] - 4 m[12,0,17] + 5 m[12,0,18] - m[12,0,19]
   + 4 m[12,1,16] + 2 m[12,1,17] + 13 m[12,1,18] - 10 m[12,1,19]
   - 50000 c[12,4,-1.0] >= -50015
 R4930: - 2 m[12,0,16] + 4 m[12,0,17] + 11 m[12,0,18] - 2 m[12,0,19]
   + 9 m[12,1,16] + 9 m[12,1,17] + 14 m[12,1,18] + 14 m[12,1,19]
   - 50000 c[12,4,-1.0] >= -49984
 R4931: 5 m[12,0,16] + 2 m[12,0,17] + 2 m[12,0,18] + 4 m[12,0,19]
   + 3 m[12,1,17] + m[12,1,19] - 50000 c[12,4,-1.0] >= -49995
 R4932: - 3324 m[12,0,16] + m[12,0,17] + 3324 m[12,0,19] + m[12,1,16]
   - 583 m[12,1,17] - 584 m[12,1,18] - 2740 m[12,1,19] - 50000 c[12,4,-1.0]
   >= -53907
 R4933: 15 m[12,0,16] - 2 m[12,0,17] + 3 m[12,0,18] - 10 m[12,0,19]
   - m[12,1,16] - 3 m[12,1,17] - 11 m[12,1,18] - 5 m[12,1,19]
   - 50000 c[12,4,-1.0] >= -50017
 R4934: - 5 m[12,0,16] - 2 m[12,0,17] + m[12,0,18] - 10 m[12,0,19]
   - 3 m[12,1,16] - 3 m[12,1,17] - 11 m[12,1,18] + 15 m[12,1,19]
   - 50000 c[12,4,-1.0] >= -50019
 R4935: c[12,5,0.0] + c[12,5,-3.0] + c[12,5,-2.0] + c[12,5,-1.41504]
   + c[12,5,-1.0] = 1
 R4936: - m[12,0,20] - m[12,0,21] - m[12,0,22] - m[12,0,23] - m[12,1,20]
   - m[12,1,21] - m[12,1,22] - m[12,1,23] - 50000 c[12,5,0.0] >= -50000
 R4937: c[12,5,-3.0] = 0
 R4938: - m[12,0,20] - m[12,0,23] - m[12,1,22] - m[12,1,23]
   - 50000 c[12,5,-2.0] >= -50003
 R4939: m[12,0,20] + 2 m[12,0,23] + m[12,1,23] - 50000 c[12,5,-2.0]
   >= -49998
 R4940: 3 m[12,0,20] + m[12,0,23] + 4 m[12,1,22] + 2 m[12,1,23]
   - 50000 c[12,5,-2.0] >= -49995
 R4941: c[12,5,-1.41504] = 0
 R4942: - 6649 m[12,0,20] + 3 m[12,0,21] - 7 m[12,0,22] + 4 m[12,0,23]
   - 5 m[12,1,20] - m[12,1,21] + 6639 m[12,1,22] - 6648 m[12,1,23]
   - 50000 c[12,5,-1.0] >= -56657
 R4943: 10 m[12,0,20] + 2 m[12,0,21] - 6641 m[12,0,22] - 6649 m[12,0,23]
   + m[12,1,20] + 3 m[12,1,21] - 6647 m[12,1,22] - 3 m[12,1,23]
   - 50000 c[12,5,-1.0] >= -63289
 R4944: 6 m[12,0,20] - m[12,0,21] - 2 m[12,0,22] + 4 m[12,0,23]
   - 2 m[12,1,21] + 5 m[12,1,22] + 4 m[12,1,23] - 50000 c[12,5,-1.0]
   >= -49999
 R4945: - 17 m[12,0,20] - 4 m[12,0,21] + 5 m[12,0,22] - m[12,0,23]
   + 4 m[12,1,20] + 2 m[12,1,21] + 13 m[12,1,22] - 10 m[12,1,23]
   - 50000 c[12,5,-1.0] >= -50015
 R4946: - 2 m[12,0,20] + 4 m[12,0,21] + 11 m[12,0,22] - 2 m[12,0,23]
   + 9 m[12,1,20] + 9 m[12,1,21] + 14 m[12,1,22] + 14 m[12,1,23]
   - 50000 c[12,5,-1.0] >= -49984
 R4947: 5 m[12,0,20] + 2 m[12,0,21] + 2 m[12,0,22] + 4 m[12,0,23]
   + 3 m[12,1,21] + m[12,1,23] - 50000 c[12,5,-1.0] >= -49995
 R4948: - 3324 m[12,0,20] + m[12,0,21] + 3324 m[12,0,23] + m[12,1,20]
   - 583 m[12,1,21] - 584 m[12,1,22] - 2740 m[12,1,23] - 50000 c[12,5,-1.0]
   >= -53907
 R4949: 15 m[12,0,20] - 2 m[12,0,21] + 3 m[12,0,22] - 10 m[12,0,23]
   - m[12,1,20] - 3 m[12,1,21] - 11 m[12,1,22] - 5 m[12,1,23]
   - 50000 c[12,5,-1.0] >= -50017
 R4950: - 5 m[12,0,20] - 2 m[12,0,21] + m[12,0,22] - 10 m[12,0,23]
   - 3 m[12,1,20] - 3 m[12,1,21] - 11 m[12,1,22] + 15 m[12,1,23]
   - 50000 c[12,5,-1.0] >= -50019
 R4951: c[12,6,0.0] + c[12,6,-3.0] + c[12,6,-2.0] + c[12,6,-1.41504]
   + c[12,6,-1.0] = 1
 R4952: - m[12,0,24] - m[12,0,25] - m[12,0,26] - m[12,0,27] - m[12,1,24]
   - m[12,1,25] - m[12,1,26] - m[12,1,27] - 50000 c[12,6,0.0] >= -50000
 R4953: c[12,6,-3.0] = 0
 R4954: - m[12,0,24] - m[12,0,27] - m[12,1,26] - m[12,1,27]
   - 50000 c[12,6,-2.0] >= -50003
 R4955: m[12,0,24] + 2 m[12,0,27] + m[12,1,27] - 50000 c[12,6,-2.0]
   >= -49998
 R4956: 3 m[12,0,24] + m[12,0,27] + 4 m[12,1,26] + 2 m[12,1,27]
   - 50000 c[12,6,-2.0] >= -49995
 R4957: c[12,6,-1.41504] = 0
 R4958: - 6649 m[12,0,24] + 3 m[12,0,25] - 7 m[12,0,26] + 4 m[12,0,27]
   - 5 m[12,1,24] - m[12,1,25] + 6639 m[12,1,26] - 6648 m[12,1,27]
   - 50000 c[12,6,-1.0] >= -56657
 R4959: 10 m[12,0,24] + 2 m[12,0,25] - 6641 m[12,0,26] - 6649 m[12,0,27]
   + m[12,1,24] + 3 m[12,1,25] - 6647 m[12,1,26] - 3 m[12,1,27]
   - 50000 c[12,6,-1.0] >= -63289
 R4960: 6 m[12,0,24] - m[12,0,25] - 2 m[12,0,26] + 4 m[12,0,27]
   - 2 m[12,1,25] + 5 m[12,1,26] + 4 m[12,1,27] - 50000 c[12,6,-1.0]
   >= -49999
 R4961: - 17 m[12,0,24] - 4 m[12,0,25] + 5 m[12,0,26] - m[12,0,27]
   + 4 m[12,1,24] + 2 m[12,1,25] + 13 m[12,1,26] - 10 m[12,1,27]
   - 50000 c[12,6,-1.0] >= -50015
 R4962: - 2 m[12,0,24] + 4 m[12,0,25] + 11 m[12,0,26] - 2 m[12,0,27]
   + 9 m[12,1,24] + 9 m[12,1,25] + 14 m[12,1,26] + 14 m[12,1,27]
   - 50000 c[12,6,-1.0] >= -49984
 R4963: 5 m[12,0,24] + 2 m[12,0,25] + 2 m[12,0,26] + 4 m[12,0,27]
   + 3 m[12,1,25] + m[12,1,27] - 50000 c[12,6,-1.0] >= -49995
 R4964: - 3324 m[12,0,24] + m[12,0,25] + 3324 m[12,0,27] + m[12,1,24]
   - 583 m[12,1,25] - 584 m[12,1,26] - 2740 m[12,1,27] - 50000 c[12,6,-1.0]
   >= -53907
 R4965: 15 m[12,0,24] - 2 m[12,0,25] + 3 m[12,0,26] - 10 m[12,0,27]
   - m[12,1,24] - 3 m[12,1,25] - 11 m[12,1,26] - 5 m[12,1,27]
   - 50000 c[12,6,-1.0] >= -50017
 R4966: - 5 m[12,0,24] - 2 m[12,0,25] + m[12,0,26] - 10 m[12,0,27]
   - 3 m[12,1,24] - 3 m[12,1,25] - 11 m[12,1,26] + 15 m[12,1,27]
   - 50000 c[12,6,-1.0] >= -50019
 R4967: c[12,7,0.0] + c[12,7,-3.0] + c[12,7,-2.0] + c[12,7,-1.41504]
   + c[12,7,-1.0] = 1
 R4968: - m[12,0,28] - m[12,0,29] - m[12,0,30] - m[12,0,31] - m[12,1,28]
   - m[12,1,29] - m[12,1,30] - m[12,1,31] - 50000 c[12,7,0.0] >= -50000
 R4969: c[12,7,-3.0] = 0
 R4970: - m[12,0,28] - m[12,0,31] - m[12,1,30] - m[12,1,31]
   - 50000 c[12,7,-2.0] >= -50003
 R4971: m[12,0,28] + 2 m[12,0,31] + m[12,1,31] - 50000 c[12,7,-2.0]
   >= -49998
 R4972: 3 m[12,0,28] + m[12,0,31] + 4 m[12,1,30] + 2 m[12,1,31]
   - 50000 c[12,7,-2.0] >= -49995
 R4973: c[12,7,-1.41504] = 0
 R4974: - 6649 m[12,0,28] + 3 m[12,0,29] - 7 m[12,0,30] + 4 m[12,0,31]
   - 5 m[12,1,28] - m[12,1,29] + 6639 m[12,1,30] - 6648 m[12,1,31]
   - 50000 c[12,7,-1.0] >= -56657
 R4975: 10 m[12,0,28] + 2 m[12,0,29] - 6641 m[12,0,30] - 6649 m[12,0,31]
   + m[12,1,28] + 3 m[12,1,29] - 6647 m[12,1,30] - 3 m[12,1,31]
   - 50000 c[12,7,-1.0] >= -63289
 R4976: 6 m[12,0,28] - m[12,0,29] - 2 m[12,0,30] + 4 m[12,0,31]
   - 2 m[12,1,29] + 5 m[12,1,30] + 4 m[12,1,31] - 50000 c[12,7,-1.0]
   >= -49999
 R4977: - 17 m[12,0,28] - 4 m[12,0,29] + 5 m[12,0,30] - m[12,0,31]
   + 4 m[12,1,28] + 2 m[12,1,29] + 13 m[12,1,30] - 10 m[12,1,31]
   - 50000 c[12,7,-1.0] >= -50015
 R4978: - 2 m[12,0,28] + 4 m[12,0,29] + 11 m[12,0,30] - 2 m[12,0,31]
   + 9 m[12,1,28] + 9 m[12,1,29] + 14 m[12,1,30] + 14 m[12,1,31]
   - 50000 c[12,7,-1.0] >= -49984
 R4979: 5 m[12,0,28] + 2 m[12,0,29] + 2 m[12,0,30] + 4 m[12,0,31]
   + 3 m[12,1,29] + m[12,1,31] - 50000 c[12,7,-1.0] >= -49995
 R4980: - 3324 m[12,0,28] + m[12,0,29] + 3324 m[12,0,31] + m[12,1,28]
   - 583 m[12,1,29] - 584 m[12,1,30] - 2740 m[12,1,31] - 50000 c[12,7,-1.0]
   >= -53907
 R4981: 15 m[12,0,28] - 2 m[12,0,29] + 3 m[12,0,30] - 10 m[12,0,31]
   - m[12,1,28] - 3 m[12,1,29] - 11 m[12,1,30] - 5 m[12,1,31]
   - 50000 c[12,7,-1.0] >= -50017
 R4982: - 5 m[12,0,28] - 2 m[12,0,29] + m[12,0,30] - 10 m[12,0,31]
   - 3 m[12,1,28] - 3 m[12,1,29] - 11 m[12,1,30] + 15 m[12,1,31]
   - 50000 c[12,7,-1.0] >= -50019
 R4983: c[12,8,0.0] + c[12,8,-3.0] + c[12,8,-2.0] + c[12,8,-1.41504]
   + c[12,8,-1.0] = 1
 R4984: - m[12,0,32] - m[12,0,33] - m[12,0,34] - m[12,0,35] - m[12,1,32]
   - m[12,1,33] - m[12,1,34] - m[12,1,35] - 50000 c[12,8,0.0] >= -50000
 R4985: c[12,8,-3.0] = 0
 R4986: - m[12,0,32] - m[12,0,35] - m[12,1,34] - m[12,1,35]
   - 50000 c[12,8,-2.0] >= -50003
 R4987: m[12,0,32] + 2 m[12,0,35] + m[12,1,35] - 50000 c[12,8,-2.0]
   >= -49998
 R4988: 3 m[12,0,32] + m[12,0,35] + 4 m[12,1,34] + 2 m[12,1,35]
   - 50000 c[12,8,-2.0] >= -49995
 R4989: c[12,8,-1.41504] = 0
 R4990: - 6649 m[12,0,32] + 3 m[12,0,33] - 7 m[12,0,34] + 4 m[12,0,35]
   - 5 m[12,1,32] - m[12,1,33] + 6639 m[12,1,34] - 6648 m[12,1,35]
   - 50000 c[12,8,-1.0] >= -56657
 R4991: 10 m[12,0,32] + 2 m[12,0,33] - 6641 m[12,0,34] - 6649 m[12,0,35]
   + m[12,1,32] + 3 m[12,1,33] - 6647 m[12,1,34] - 3 m[12,1,35]
   - 50000 c[12,8,-1.0] >= -63289
 R4992: 6 m[12,0,32] - m[12,0,33] - 2 m[12,0,34] + 4 m[12,0,35]
   - 2 m[12,1,33] + 5 m[12,1,34] + 4 m[12,1,35] - 50000 c[12,8,-1.0]
   >= -49999
 R4993: - 17 m[12,0,32] - 4 m[12,0,33] + 5 m[12,0,34] - m[12,0,35]
   + 4 m[12,1,32] + 2 m[12,1,33] + 13 m[12,1,34] - 10 m[12,1,35]
   - 50000 c[12,8,-1.0] >= -50015
 R4994: - 2 m[12,0,32] + 4 m[12,0,33] + 11 m[12,0,34] - 2 m[12,0,35]
   + 9 m[12,1,32] + 9 m[12,1,33] + 14 m[12,1,34] + 14 m[12,1,35]
   - 50000 c[12,8,-1.0] >= -49984
 R4995: 5 m[12,0,32] + 2 m[12,0,33] + 2 m[12,0,34] + 4 m[12,0,35]
   + 3 m[12,1,33] + m[12,1,35] - 50000 c[12,8,-1.0] >= -49995
 R4996: - 3324 m[12,0,32] + m[12,0,33] + 3324 m[12,0,35] + m[12,1,32]
   - 583 m[12,1,33] - 584 m[12,1,34] - 2740 m[12,1,35] - 50000 c[12,8,-1.0]
   >= -53907
 R4997: 15 m[12,0,32] - 2 m[12,0,33] + 3 m[12,0,34] - 10 m[12,0,35]
   - m[12,1,32] - 3 m[12,1,33] - 11 m[12,1,34] - 5 m[12,1,35]
   - 50000 c[12,8,-1.0] >= -50017
 R4998: - 5 m[12,0,32] - 2 m[12,0,33] + m[12,0,34] - 10 m[12,0,35]
   - 3 m[12,1,32] - 3 m[12,1,33] - 11 m[12,1,34] + 15 m[12,1,35]
   - 50000 c[12,8,-1.0] >= -50019
 R4999: c[12,9,0.0] + c[12,9,-3.0] + c[12,9,-2.0] + c[12,9,-1.41504]
   + c[12,9,-1.0] = 1
 R5000: - m[12,0,36] - m[12,0,37] - m[12,0,38] - m[12,0,39] - m[12,1,36]
   - m[12,1,37] - m[12,1,38] - m[12,1,39] - 50000 c[12,9,0.0] >= -50000
 R5001: c[12,9,-3.0] = 0
 R5002: - m[12,0,36] - m[12,0,39] - m[12,1,38] - m[12,1,39]
   - 50000 c[12,9,-2.0] >= -50003
 R5003: m[12,0,36] + 2 m[12,0,39] + m[12,1,39] - 50000 c[12,9,-2.0]
   >= -49998
 R5004: 3 m[12,0,36] + m[12,0,39] + 4 m[12,1,38] + 2 m[12,1,39]
   - 50000 c[12,9,-2.0] >= -49995
 R5005: c[12,9,-1.41504] = 0
 R5006: - 6649 m[12,0,36] + 3 m[12,0,37] - 7 m[12,0,38] + 4 m[12,0,39]
   - 5 m[12,1,36] - m[12,1,37] + 6639 m[12,1,38] - 6648 m[12,1,39]
   - 50000 c[12,9,-1.0] >= -56657
 R5007: 10 m[12,0,36] + 2 m[12,0,37] - 6641 m[12,0,38] - 6649 m[12,0,39]
   + m[12,1,36] + 3 m[12,1,37] - 6647 m[12,1,38] - 3 m[12,1,39]
   - 50000 c[12,9,-1.0] >= -63289
 R5008: 6 m[12,0,36] - m[12,0,37] - 2 m[12,0,38] + 4 m[12,0,39]
   - 2 m[12,1,37] + 5 m[12,1,38] + 4 m[12,1,39] - 50000 c[12,9,-1.0]
   >= -49999
 R5009: - 17 m[12,0,36] - 4 m[12,0,37] + 5 m[12,0,38] - m[12,0,39]
   + 4 m[12,1,36] + 2 m[12,1,37] + 13 m[12,1,38] - 10 m[12,1,39]
   - 50000 c[12,9,-1.0] >= -50015
 R5010: - 2 m[12,0,36] + 4 m[12,0,37] + 11 m[12,0,38] - 2 m[12,0,39]
   + 9 m[12,1,36] + 9 m[12,1,37] + 14 m[12,1,38] + 14 m[12,1,39]
   - 50000 c[12,9,-1.0] >= -49984
 R5011: 5 m[12,0,36] + 2 m[12,0,37] + 2 m[12,0,38] + 4 m[12,0,39]
   + 3 m[12,1,37] + m[12,1,39] - 50000 c[12,9,-1.0] >= -49995
 R5012: - 3324 m[12,0,36] + m[12,0,37] + 3324 m[12,0,39] + m[12,1,36]
   - 583 m[12,1,37] - 584 m[12,1,38] - 2740 m[12,1,39] - 50000 c[12,9,-1.0]
   >= -53907
 R5013: 15 m[12,0,36] - 2 m[12,0,37] + 3 m[12,0,38] - 10 m[12,0,39]
   - m[12,1,36] - 3 m[12,1,37] - 11 m[12,1,38] - 5 m[12,1,39]
   - 50000 c[12,9,-1.0] >= -50017
 R5014: - 5 m[12,0,36] - 2 m[12,0,37] + m[12,0,38] - 10 m[12,0,39]
   - 3 m[12,1,36] - 3 m[12,1,37] - 11 m[12,1,38] + 15 m[12,1,39]
   - 50000 c[12,9,-1.0] >= -50019
 R5015: c[12,10,0.0] + c[12,10,-3.0] + c[12,10,-2.0] + c[12,10,-1.41504]
   + c[12,10,-1.0] = 1
 R5016: - m[12,0,40] - m[12,0,41] - m[12,0,42] - m[12,0,43] - m[12,1,40]
   - m[12,1,41] - m[12,1,42] - m[12,1,43] - 50000 c[12,10,0.0] >= -50000
 R5017: c[12,10,-3.0] = 0
 R5018: - m[12,0,40] - m[12,0,43] - m[12,1,42] - m[12,1,43]
   - 50000 c[12,10,-2.0] >= -50003
 R5019: m[12,0,40] + 2 m[12,0,43] + m[12,1,43] - 50000 c[12,10,-2.0]
   >= -49998
 R5020: 3 m[12,0,40] + m[12,0,43] + 4 m[12,1,42] + 2 m[12,1,43]
   - 50000 c[12,10,-2.0] >= -49995
 R5021: c[12,10,-1.41504] = 0
 R5022: - 6649 m[12,0,40] + 3 m[12,0,41] - 7 m[12,0,42] + 4 m[12,0,43]
   - 5 m[12,1,40] - m[12,1,41] + 6639 m[12,1,42] - 6648 m[12,1,43]
   - 50000 c[12,10,-1.0] >= -56657
 R5023: 10 m[12,0,40] + 2 m[12,0,41] - 6641 m[12,0,42] - 6649 m[12,0,43]
   + m[12,1,40] + 3 m[12,1,41] - 6647 m[12,1,42] - 3 m[12,1,43]
   - 50000 c[12,10,-1.0] >= -63289
 R5024: 6 m[12,0,40] - m[12,0,41] - 2 m[12,0,42] + 4 m[12,0,43]
   - 2 m[12,1,41] + 5 m[12,1,42] + 4 m[12,1,43] - 50000 c[12,10,-1.0]
   >= -49999
 R5025: - 17 m[12,0,40] - 4 m[12,0,41] + 5 m[12,0,42] - m[12,0,43]
   + 4 m[12,1,40] + 2 m[12,1,41] + 13 m[12,1,42] - 10 m[12,1,43]
   - 50000 c[12,10,-1.0] >= -50015
 R5026: - 2 m[12,0,40] + 4 m[12,0,41] + 11 m[12,0,42] - 2 m[12,0,43]
   + 9 m[12,1,40] + 9 m[12,1,41] + 14 m[12,1,42] + 14 m[12,1,43]
   - 50000 c[12,10,-1.0] >= -49984
 R5027: 5 m[12,0,40] + 2 m[12,0,41] + 2 m[12,0,42] + 4 m[12,0,43]
   + 3 m[12,1,41] + m[12,1,43] - 50000 c[12,10,-1.0] >= -49995
 R5028: - 3324 m[12,0,40] + m[12,0,41] + 3324 m[12,0,43] + m[12,1,40]
   - 583 m[12,1,41] - 584 m[12,1,42] - 2740 m[12,1,43]
   - 50000 c[12,10,-1.0] >= -53907
 R5029: 15 m[12,0,40] - 2 m[12,0,41] + 3 m[12,0,42] - 10 m[12,0,43]
   - m[12,1,40] - 3 m[12,1,41] - 11 m[12,1,42] - 5 m[12,1,43]
   - 50000 c[12,10,-1.0] >= -50017
 R5030: - 5 m[12,0,40] - 2 m[12,0,41] + m[12,0,42] - 10 m[12,0,43]
   - 3 m[12,1,40] - 3 m[12,1,41] - 11 m[12,1,42] + 15 m[12,1,43]
   - 50000 c[12,10,-1.0] >= -50019
 R5031: c[12,11,0.0] + c[12,11,-3.0] + c[12,11,-2.0] + c[12,11,-1.41504]
   + c[12,11,-1.0] = 1
 R5032: - m[12,0,44] - m[12,0,45] - m[12,0,46] - m[12,0,47] - m[12,1,44]
   - m[12,1,45] - m[12,1,46] - m[12,1,47] - 50000 c[12,11,0.0] >= -50000
 R5033: c[12,11,-3.0] = 0
 R5034: - m[12,0,44] - m[12,0,47] - m[12,1,46] - m[12,1,47]
   - 50000 c[12,11,-2.0] >= -50003
 R5035: m[12,0,44] + 2 m[12,0,47] + m[12,1,47] - 50000 c[12,11,-2.0]
   >= -49998
 R5036: 3 m[12,0,44] + m[12,0,47] + 4 m[12,1,46] + 2 m[12,1,47]
   - 50000 c[12,11,-2.0] >= -49995
 R5037: c[12,11,-1.41504] = 0
 R5038: - 6649 m[12,0,44] + 3 m[12,0,45] - 7 m[12,0,46] + 4 m[12,0,47]
   - 5 m[12,1,44] - m[12,1,45] + 6639 m[12,1,46] - 6648 m[12,1,47]
   - 50000 c[12,11,-1.0] >= -56657
 R5039: 10 m[12,0,44] + 2 m[12,0,45] - 6641 m[12,0,46] - 6649 m[12,0,47]
   + m[12,1,44] + 3 m[12,1,45] - 6647 m[12,1,46] - 3 m[12,1,47]
   - 50000 c[12,11,-1.0] >= -63289
 R5040: 6 m[12,0,44] - m[12,0,45] - 2 m[12,0,46] + 4 m[12,0,47]
   - 2 m[12,1,45] + 5 m[12,1,46] + 4 m[12,1,47] - 50000 c[12,11,-1.0]
   >= -49999
 R5041: - 17 m[12,0,44] - 4 m[12,0,45] + 5 m[12,0,46] - m[12,0,47]
   + 4 m[12,1,44] + 2 m[12,1,45] + 13 m[12,1,46] - 10 m[12,1,47]
   - 50000 c[12,11,-1.0] >= -50015
 R5042: - 2 m[12,0,44] + 4 m[12,0,45] + 11 m[12,0,46] - 2 m[12,0,47]
   + 9 m[12,1,44] + 9 m[12,1,45] + 14 m[12,1,46] + 14 m[12,1,47]
   - 50000 c[12,11,-1.0] >= -49984
 R5043: 5 m[12,0,44] + 2 m[12,0,45] + 2 m[12,0,46] + 4 m[12,0,47]
   + 3 m[12,1,45] + m[12,1,47] - 50000 c[12,11,-1.0] >= -49995
 R5044: - 3324 m[12,0,44] + m[12,0,45] + 3324 m[12,0,47] + m[12,1,44]
   - 583 m[12,1,45] - 584 m[12,1,46] - 2740 m[12,1,47]
   - 50000 c[12,11,-1.0] >= -53907
 R5045: 15 m[12,0,44] - 2 m[12,0,45] + 3 m[12,0,46] - 10 m[12,0,47]
   - m[12,1,44] - 3 m[12,1,45] - 11 m[12,1,46] - 5 m[12,1,47]
   - 50000 c[12,11,-1.0] >= -50017
 R5046: - 5 m[12,0,44] - 2 m[12,0,45] + m[12,0,46] - 10 m[12,0,47]
   - 3 m[12,1,44] - 3 m[12,1,45] - 11 m[12,1,46] + 15 m[12,1,47]
   - 50000 c[12,11,-1.0] >= -50019
 R5047: c[12,12,0.0] + c[12,12,-3.0] + c[12,12,-2.0] + c[12,12,-1.41504]
   + c[12,12,-1.0] = 1
 R5048: - m[12,0,48] - m[12,0,49] - m[12,0,50] - m[12,0,51] - m[12,1,48]
   - m[12,1,49] - m[12,1,50] - m[12,1,51] - 50000 c[12,12,0.0] >= -50000
 R5049: c[12,12,-3.0] = 0
 R5050: - m[12,0,48] - m[12,0,51] - m[12,1,50] - m[12,1,51]
   - 50000 c[12,12,-2.0] >= -50003
 R5051: m[12,0,48] + 2 m[12,0,51] + m[12,1,51] - 50000 c[12,12,-2.0]
   >= -49998
 R5052: 3 m[12,0,48] + m[12,0,51] + 4 m[12,1,50] + 2 m[12,1,51]
   - 50000 c[12,12,-2.0] >= -49995
 R5053: c[12,12,-1.41504] = 0
 R5054: - 6649 m[12,0,48] + 3 m[12,0,49] - 7 m[12,0,50] + 4 m[12,0,51]
   - 5 m[12,1,48] - m[12,1,49] + 6639 m[12,1,50] - 6648 m[12,1,51]
   - 50000 c[12,12,-1.0] >= -56657
 R5055: 10 m[12,0,48] + 2 m[12,0,49] - 6641 m[12,0,50] - 6649 m[12,0,51]
   + m[12,1,48] + 3 m[12,1,49] - 6647 m[12,1,50] - 3 m[12,1,51]
   - 50000 c[12,12,-1.0] >= -63289
 R5056: 6 m[12,0,48] - m[12,0,49] - 2 m[12,0,50] + 4 m[12,0,51]
   - 2 m[12,1,49] + 5 m[12,1,50] + 4 m[12,1,51] - 50000 c[12,12,-1.0]
   >= -49999
 R5057: - 17 m[12,0,48] - 4 m[12,0,49] + 5 m[12,0,50] - m[12,0,51]
   + 4 m[12,1,48] + 2 m[12,1,49] + 13 m[12,1,50] - 10 m[12,1,51]
   - 50000 c[12,12,-1.0] >= -50015
 R5058: - 2 m[12,0,48] + 4 m[12,0,49] + 11 m[12,0,50] - 2 m[12,0,51]
   + 9 m[12,1,48] + 9 m[12,1,49] + 14 m[12,1,50] + 14 m[12,1,51]
   - 50000 c[12,12,-1.0] >= -49984
 R5059: 5 m[12,0,48] + 2 m[12,0,49] + 2 m[12,0,50] + 4 m[12,0,51]
   + 3 m[12,1,49] + m[12,1,51] - 50000 c[12,12,-1.0] >= -49995
 R5060: - 3324 m[12,0,48] + m[12,0,49] + 3324 m[12,0,51] + m[12,1,48]
   - 583 m[12,1,49] - 584 m[12,1,50] - 2740 m[12,1,51]
   - 50000 c[12,12,-1.0] >= -53907
 R5061: 15 m[12,0,48] - 2 m[12,0,49] + 3 m[12,0,50] - 10 m[12,0,51]
   - m[12,1,48] - 3 m[12,1,49] - 11 m[12,1,50] - 5 m[12,1,51]
   - 50000 c[12,12,-1.0] >= -50017
 R5062: - 5 m[12,0,48] - 2 m[12,0,49] + m[12,0,50] - 10 m[12,0,51]
   - 3 m[12,1,48] - 3 m[12,1,49] - 11 m[12,1,50] + 15 m[12,1,51]
   - 50000 c[12,12,-1.0] >= -50019
 R5063: c[12,13,0.0] + c[12,13,-3.0] + c[12,13,-2.0] + c[12,13,-1.41504]
   + c[12,13,-1.0] = 1
 R5064: - m[12,0,52] - m[12,0,53] - m[12,0,54] - m[12,0,55] - m[12,1,52]
   - m[12,1,53] - m[12,1,54] - m[12,1,55] - 50000 c[12,13,0.0] >= -50000
 R5065: c[12,13,-3.0] = 0
 R5066: - m[12,0,52] - m[12,0,55] - m[12,1,54] - m[12,1,55]
   - 50000 c[12,13,-2.0] >= -50003
 R5067: m[12,0,52] + 2 m[12,0,55] + m[12,1,55] - 50000 c[12,13,-2.0]
   >= -49998
 R5068: 3 m[12,0,52] + m[12,0,55] + 4 m[12,1,54] + 2 m[12,1,55]
   - 50000 c[12,13,-2.0] >= -49995
 R5069: c[12,13,-1.41504] = 0
 R5070: - 6649 m[12,0,52] + 3 m[12,0,53] - 7 m[12,0,54] + 4 m[12,0,55]
   - 5 m[12,1,52] - m[12,1,53] + 6639 m[12,1,54] - 6648 m[12,1,55]
   - 50000 c[12,13,-1.0] >= -56657
 R5071: 10 m[12,0,52] + 2 m[12,0,53] - 6641 m[12,0,54] - 6649 m[12,0,55]
   + m[12,1,52] + 3 m[12,1,53] - 6647 m[12,1,54] - 3 m[12,1,55]
   - 50000 c[12,13,-1.0] >= -63289
 R5072: 6 m[12,0,52] - m[12,0,53] - 2 m[12,0,54] + 4 m[12,0,55]
   - 2 m[12,1,53] + 5 m[12,1,54] + 4 m[12,1,55] - 50000 c[12,13,-1.0]
   >= -49999
 R5073: - 17 m[12,0,52] - 4 m[12,0,53] + 5 m[12,0,54] - m[12,0,55]
   + 4 m[12,1,52] + 2 m[12,1,53] + 13 m[12,1,54] - 10 m[12,1,55]
   - 50000 c[12,13,-1.0] >= -50015
 R5074: - 2 m[12,0,52] + 4 m[12,0,53] + 11 m[12,0,54] - 2 m[12,0,55]
   + 9 m[12,1,52] + 9 m[12,1,53] + 14 m[12,1,54] + 14 m[12,1,55]
   - 50000 c[12,13,-1.0] >= -49984
 R5075: 5 m[12,0,52] + 2 m[12,0,53] + 2 m[12,0,54] + 4 m[12,0,55]
   + 3 m[12,1,53] + m[12,1,55] - 50000 c[12,13,-1.0] >= -49995
 R5076: - 3324 m[12,0,52] + m[12,0,53] + 3324 m[12,0,55] + m[12,1,52]
   - 583 m[12,1,53] - 584 m[12,1,54] - 2740 m[12,1,55]
   - 50000 c[12,13,-1.0] >= -53907
 R5077: 15 m[12,0,52] - 2 m[12,0,53] + 3 m[12,0,54] - 10 m[12,0,55]
   - m[12,1,52] - 3 m[12,1,53] - 11 m[12,1,54] - 5 m[12,1,55]
   - 50000 c[12,13,-1.0] >= -50017
 R5078: - 5 m[12,0,52] - 2 m[12,0,53] + m[12,0,54] - 10 m[12,0,55]
   - 3 m[12,1,52] - 3 m[12,1,53] - 11 m[12,1,54] + 15 m[12,1,55]
   - 50000 c[12,13,-1.0] >= -50019
 R5079: c[12,14,0.0] + c[12,14,-3.0] + c[12,14,-2.0] + c[12,14,-1.41504]
   + c[12,14,-1.0] = 1
 R5080: - m[12,0,56] - m[12,0,57] - m[12,0,58] - m[12,0,59] - m[12,1,56]
   - m[12,1,57] - m[12,1,58] - m[12,1,59] - 50000 c[12,14,0.0] >= -50000
 R5081: c[12,14,-3.0] = 0
 R5082: - m[12,0,56] - m[12,0,59] - m[12,1,58] - m[12,1,59]
   - 50000 c[12,14,-2.0] >= -50003
 R5083: m[12,0,56] + 2 m[12,0,59] + m[12,1,59] - 50000 c[12,14,-2.0]
   >= -49998
 R5084: 3 m[12,0,56] + m[12,0,59] + 4 m[12,1,58] + 2 m[12,1,59]
   - 50000 c[12,14,-2.0] >= -49995
 R5085: c[12,14,-1.41504] = 0
 R5086: - 6649 m[12,0,56] + 3 m[12,0,57] - 7 m[12,0,58] + 4 m[12,0,59]
   - 5 m[12,1,56] - m[12,1,57] + 6639 m[12,1,58] - 6648 m[12,1,59]
   - 50000 c[12,14,-1.0] >= -56657
 R5087: 10 m[12,0,56] + 2 m[12,0,57] - 6641 m[12,0,58] - 6649 m[12,0,59]
   + m[12,1,56] + 3 m[12,1,57] - 6647 m[12,1,58] - 3 m[12,1,59]
   - 50000 c[12,14,-1.0] >= -63289
 R5088: 6 m[12,0,56] - m[12,0,57] - 2 m[12,0,58] + 4 m[12,0,59]
   - 2 m[12,1,57] + 5 m[12,1,58] + 4 m[12,1,59] - 50000 c[12,14,-1.0]
   >= -49999
 R5089: - 17 m[12,0,56] - 4 m[12,0,57] + 5 m[12,0,58] - m[12,0,59]
   + 4 m[12,1,56] + 2 m[12,1,57] + 13 m[12,1,58] - 10 m[12,1,59]
   - 50000 c[12,14,-1.0] >= -50015
 R5090: - 2 m[12,0,56] + 4 m[12,0,57] + 11 m[12,0,58] - 2 m[12,0,59]
   + 9 m[12,1,56] + 9 m[12,1,57] + 14 m[12,1,58] + 14 m[12,1,59]
   - 50000 c[12,14,-1.0] >= -49984
 R5091: 5 m[12,0,56] + 2 m[12,0,57] + 2 m[12,0,58] + 4 m[12,0,59]
   + 3 m[12,1,57] + m[12,1,59] - 50000 c[12,14,-1.0] >= -49995
 R5092: - 3324 m[12,0,56] + m[12,0,57] + 3324 m[12,0,59] + m[12,1,56]
   - 583 m[12,1,57] - 584 m[12,1,58] - 2740 m[12,1,59]
   - 50000 c[12,14,-1.0] >= -53907
 R5093: 15 m[12,0,56] - 2 m[12,0,57] + 3 m[12,0,58] - 10 m[12,0,59]
   - m[12,1,56] - 3 m[12,1,57] - 11 m[12,1,58] - 5 m[12,1,59]
   - 50000 c[12,14,-1.0] >= -50017
 R5094: - 5 m[12,0,56] - 2 m[12,0,57] + m[12,0,58] - 10 m[12,0,59]
   - 3 m[12,1,56] - 3 m[12,1,57] - 11 m[12,1,58] + 15 m[12,1,59]
   - 50000 c[12,14,-1.0] >= -50019
 R5095: c[12,15,0.0] + c[12,15,-3.0] + c[12,15,-2.0] + c[12,15,-1.41504]
   + c[12,15,-1.0] = 1
 R5096: - m[12,0,60] - m[12,0,61] - m[12,0,62] - m[12,0,63] - m[12,1,60]
   - m[12,1,61] - m[12,1,62] - m[12,1,63] - 50000 c[12,15,0.0] >= -50000
 R5097: c[12,15,-3.0] = 0
 R5098: - m[12,0,60] - m[12,0,63] - m[12,1,62] - m[12,1,63]
   - 50000 c[12,15,-2.0] >= -50003
 R5099: m[12,0,60] + 2 m[12,0,63] + m[12,1,63] - 50000 c[12,15,-2.0]
   >= -49998
 R5100: 3 m[12,0,60] + m[12,0,63] + 4 m[12,1,62] + 2 m[12,1,63]
   - 50000 c[12,15,-2.0] >= -49995
 R5101: c[12,15,-1.41504] = 0
 R5102: - 6649 m[12,0,60] + 3 m[12,0,61] - 7 m[12,0,62] + 4 m[12,0,63]
   - 5 m[12,1,60] - m[12,1,61] + 6639 m[12,1,62] - 6648 m[12,1,63]
   - 50000 c[12,15,-1.0] >= -56657
 R5103: 10 m[12,0,60] + 2 m[12,0,61] - 6641 m[12,0,62] - 6649 m[12,0,63]
   + m[12,1,60] + 3 m[12,1,61] - 6647 m[12,1,62] - 3 m[12,1,63]
   - 50000 c[12,15,-1.0] >= -63289
 R5104: 6 m[12,0,60] - m[12,0,61] - 2 m[12,0,62] + 4 m[12,0,63]
   - 2 m[12,1,61] + 5 m[12,1,62] + 4 m[12,1,63] - 50000 c[12,15,-1.0]
   >= -49999
 R5105: - 17 m[12,0,60] - 4 m[12,0,61] + 5 m[12,0,62] - m[12,0,63]
   + 4 m[12,1,60] + 2 m[12,1,61] + 13 m[12,1,62] - 10 m[12,1,63]
   - 50000 c[12,15,-1.0] >= -50015
 R5106: - 2 m[12,0,60] + 4 m[12,0,61] + 11 m[12,0,62] - 2 m[12,0,63]
   + 9 m[12,1,60] + 9 m[12,1,61] + 14 m[12,1,62] + 14 m[12,1,63]
   - 50000 c[12,15,-1.0] >= -49984
 R5107: 5 m[12,0,60] + 2 m[12,0,61] + 2 m[12,0,62] + 4 m[12,0,63]
   + 3 m[12,1,61] + m[12,1,63] - 50000 c[12,15,-1.0] >= -49995
 R5108: - 3324 m[12,0,60] + m[12,0,61] + 3324 m[12,0,63] + m[12,1,60]
   - 583 m[12,1,61] - 584 m[12,1,62] - 2740 m[12,1,63]
   - 50000 c[12,15,-1.0] >= -53907
 R5109: 15 m[12,0,60] - 2 m[12,0,61] + 3 m[12,0,62] - 10 m[12,0,63]
   - m[12,1,60] - 3 m[12,1,61] - 11 m[12,1,62] - 5 m[12,1,63]
   - 50000 c[12,15,-1.0] >= -50017
 R5110: - 5 m[12,0,60] - 2 m[12,0,61] + m[12,0,62] - 10 m[12,0,63]
   - 3 m[12,1,60] - 3 m[12,1,61] - 11 m[12,1,62] + 15 m[12,1,63]
   - 50000 c[12,15,-1.0] >= -50019
 R5111: c[13,0,0.0] + c[13,0,-3.0] + c[13,0,-2.0] + c[13,0,-1.41504]
   + c[13,0,-1.0] = 1
 R5112: c[13,0,0.0] = 0
 R5113: c[13,0,-3.0] = 0
 R5114: m[13,0,2] + m[13,0,3] - m[13,1,3] - 50000 c[13,0,-2.0] >= -50000
 R5115: - 3 m[13,0,0] - m[13,0,2] - m[13,0,3] - 3 m[13,1,1] - 3 m[13,1,2]
   - m[13,1,3] - 50000 c[13,0,-2.0] >= -50008
 R5116: - m[13,0,2] + m[13,0,3] + m[13,1,3] - 50000 c[13,0,-2.0] >= -50000
 R5117: 3 m[13,0,0] - m[13,0,2] - m[13,0,3] + 3 m[13,1,1] - 3 m[13,1,2]
   - m[13,1,3] - 50000 c[13,0,-2.0] >= -50002
 R5118: 3 m[13,0,0] + m[13,0,2] - m[13,0,3] - 3 m[13,1,1] + 3 m[13,1,2]
   + m[13,1,3] - 50000 c[13,0,-2.0] >= -50000
 R5119: - 3 m[13,0,0] + m[13,0,2] - m[13,0,3] + 3 m[13,1,1] + 3 m[13,1,2]
   + m[13,1,3] - 50000 c[13,0,-2.0] >= -50000
 R5120: c[13,0,-1.41504] = 0
 R5121: c[13,0,-1.0] = 0
 R5122: c[13,1,0.0] + c[13,1,-3.0] + c[13,1,-2.0] + c[13,1,-1.41504]
   + c[13,1,-1.0] = 1
 R5123: - m[13,0,4] - m[13,0,5] - m[13,0,6] - m[13,0,7] - m[13,1,4]
   - m[13,1,5] - m[13,1,6] - m[13,1,7] - 50000 c[13,1,0.0] >= -50000
 R5124: c[13,1,-3.0] = 0
 R5125: - m[13,0,4] - m[13,0,7] - m[13,1,6] - m[13,1,7]
   - 50000 c[13,1,-2.0] >= -50003
 R5126: m[13,0,4] + 2 m[13,0,7] + m[13,1,7] - 50000 c[13,1,-2.0] >= -49998
 R5127: 3 m[13,0,4] + m[13,0,7] + 4 m[13,1,6] + 2 m[13,1,7]
   - 50000 c[13,1,-2.0] >= -49995
 R5128: c[13,1,-1.41504] = 0
 R5129: - 6649 m[13,0,4] + 3 m[13,0,5] - 7 m[13,0,6] + 4 m[13,0,7]
   - 5 m[13,1,4] - m[13,1,5] + 6639 m[13,1,6] - 6648 m[13,1,7]
   - 50000 c[13,1,-1.0] >= -56657
 R5130: 10 m[13,0,4] + 2 m[13,0,5] - 6641 m[13,0,6] - 6649 m[13,0,7]
   + m[13,1,4] + 3 m[13,1,5] - 6647 m[13,1,6] - 3 m[13,1,7]
   - 50000 c[13,1,-1.0] >= -63289
 R5131: 6 m[13,0,4] - m[13,0,5] - 2 m[13,0,6] + 4 m[13,0,7] - 2 m[13,1,5]
   + 5 m[13,1,6] + 4 m[13,1,7] - 50000 c[13,1,-1.0] >= -49999
 R5132: - 17 m[13,0,4] - 4 m[13,0,5] + 5 m[13,0,6] - m[13,0,7]
   + 4 m[13,1,4] + 2 m[13,1,5] + 13 m[13,1,6] - 10 m[13,1,7]
   - 50000 c[13,1,-1.0] >= -50015
 R5133: - 2 m[13,0,4] + 4 m[13,0,5] + 11 m[13,0,6] - 2 m[13,0,7]
   + 9 m[13,1,4] + 9 m[13,1,5] + 14 m[13,1,6] + 14 m[13,1,7]
   - 50000 c[13,1,-1.0] >= -49984
 R5134: 5 m[13,0,4] + 2 m[13,0,5] + 2 m[13,0,6] + 4 m[13,0,7] + 3 m[13,1,5]
   + m[13,1,7] - 50000 c[13,1,-1.0] >= -49995
 R5135: - 3324 m[13,0,4] + m[13,0,5] + 3324 m[13,0,7] + m[13,1,4]
   - 583 m[13,1,5] - 584 m[13,1,6] - 2740 m[13,1,7] - 50000 c[13,1,-1.0]
   >= -53907
 R5136: 15 m[13,0,4] - 2 m[13,0,5] + 3 m[13,0,6] - 10 m[13,0,7] - m[13,1,4]
   - 3 m[13,1,5] - 11 m[13,1,6] - 5 m[13,1,7] - 50000 c[13,1,-1.0]
   >= -50017
 R5137: - 5 m[13,0,4] - 2 m[13,0,5] + m[13,0,6] - 10 m[13,0,7]
   - 3 m[13,1,4] - 3 m[13,1,5] - 11 m[13,1,6] + 15 m[13,1,7]
   - 50000 c[13,1,-1.0] >= -50019
 R5138: c[13,2,0.0] + c[13,2,-3.0] + c[13,2,-2.0] + c[13,2,-1.41504]
   + c[13,2,-1.0] = 1
 R5139: - m[13,0,8] - m[13,0,9] - m[13,0,10] - m[13,0,11] - m[13,1,8]
   - m[13,1,9] - m[13,1,10] - m[13,1,11] - 50000 c[13,2,0.0] >= -50000
 R5140: c[13,2,-3.0] = 0
 R5141: - m[13,0,8] - m[13,0,11] - m[13,1,10] - m[13,1,11]
   - 50000 c[13,2,-2.0] >= -50003
 R5142: m[13,0,8] + 2 m[13,0,11] + m[13,1,11] - 50000 c[13,2,-2.0]
   >= -49998
 R5143: 3 m[13,0,8] + m[13,0,11] + 4 m[13,1,10] + 2 m[13,1,11]
   - 50000 c[13,2,-2.0] >= -49995
 R5144: c[13,2,-1.41504] = 0
 R5145: - 6649 m[13,0,8] + 3 m[13,0,9] - 7 m[13,0,10] + 4 m[13,0,11]
   - 5 m[13,1,8] - m[13,1,9] + 6639 m[13,1,10] - 6648 m[13,1,11]
   - 50000 c[13,2,-1.0] >= -56657
 R5146: 10 m[13,0,8] + 2 m[13,0,9] - 6641 m[13,0,10] - 6649 m[13,0,11]
   + m[13,1,8] + 3 m[13,1,9] - 6647 m[13,1,10] - 3 m[13,1,11]
   - 50000 c[13,2,-1.0] >= -63289
 R5147: 6 m[13,0,8] - m[13,0,9] - 2 m[13,0,10] + 4 m[13,0,11] - 2 m[13,1,9]
   + 5 m[13,1,10] + 4 m[13,1,11] - 50000 c[13,2,-1.0] >= -49999
 R5148: - 17 m[13,0,8] - 4 m[13,0,9] + 5 m[13,0,10] - m[13,0,11]
   + 4 m[13,1,8] + 2 m[13,1,9] + 13 m[13,1,10] - 10 m[13,1,11]
   - 50000 c[13,2,-1.0] >= -50015
 R5149: - 2 m[13,0,8] + 4 m[13,0,9] + 11 m[13,0,10] - 2 m[13,0,11]
   + 9 m[13,1,8] + 9 m[13,1,9] + 14 m[13,1,10] + 14 m[13,1,11]
   - 50000 c[13,2,-1.0] >= -49984
 R5150: 5 m[13,0,8] + 2 m[13,0,9] + 2 m[13,0,10] + 4 m[13,0,11]
   + 3 m[13,1,9] + m[13,1,11] - 50000 c[13,2,-1.0] >= -49995
 R5151: - 3324 m[13,0,8] + m[13,0,9] + 3324 m[13,0,11] + m[13,1,8]
   - 583 m[13,1,9] - 584 m[13,1,10] - 2740 m[13,1,11] - 50000 c[13,2,-1.0]
   >= -53907
 R5152: 15 m[13,0,8] - 2 m[13,0,9] + 3 m[13,0,10] - 10 m[13,0,11]
   - m[13,1,8] - 3 m[13,1,9] - 11 m[13,1,10] - 5 m[13,1,11]
   - 50000 c[13,2,-1.0] >= -50017
 R5153: - 5 m[13,0,8] - 2 m[13,0,9] + m[13,0,10] - 10 m[13,0,11]
   - 3 m[13,1,8] - 3 m[13,1,9] - 11 m[13,1,10] + 15 m[13,1,11]
   - 50000 c[13,2,-1.0] >= -50019
 R5154: c[13,3,0.0] + c[13,3,-3.0] + c[13,3,-2.0] + c[13,3,-1.41504]
   + c[13,3,-1.0] = 1
 R5155: - m[13,0,12] - m[13,0,13] - m[13,0,14] - m[13,0,15] - m[13,1,12]
   - m[13,1,13] - m[13,1,14] - m[13,1,15] - 50000 c[13,3,0.0] >= -50000
 R5156: c[13,3,-3.0] = 0
 R5157: - m[13,0,12] - m[13,0,15] - m[13,1,14] - m[13,1,15]
   - 50000 c[13,3,-2.0] >= -50003
 R5158: m[13,0,12] + 2 m[13,0,15] + m[13,1,15] - 50000 c[13,3,-2.0]
   >= -49998
 R5159: 3 m[13,0,12] + m[13,0,15] + 4 m[13,1,14] + 2 m[13,1,15]
   - 50000 c[13,3,-2.0] >= -49995
 R5160: c[13,3,-1.41504] = 0
 R5161: - 6649 m[13,0,12] + 3 m[13,0,13] - 7 m[13,0,14] + 4 m[13,0,15]
   - 5 m[13,1,12] - m[13,1,13] + 6639 m[13,1,14] - 6648 m[13,1,15]
   - 50000 c[13,3,-1.0] >= -56657
 R5162: 10 m[13,0,12] + 2 m[13,0,13] - 6641 m[13,0,14] - 6649 m[13,0,15]
   + m[13,1,12] + 3 m[13,1,13] - 6647 m[13,1,14] - 3 m[13,1,15]
   - 50000 c[13,3,-1.0] >= -63289
 R5163: 6 m[13,0,12] - m[13,0,13] - 2 m[13,0,14] + 4 m[13,0,15]
   - 2 m[13,1,13] + 5 m[13,1,14] + 4 m[13,1,15] - 50000 c[13,3,-1.0]
   >= -49999
 R5164: - 17 m[13,0,12] - 4 m[13,0,13] + 5 m[13,0,14] - m[13,0,15]
   + 4 m[13,1,12] + 2 m[13,1,13] + 13 m[13,1,14] - 10 m[13,1,15]
   - 50000 c[13,3,-1.0] >= -50015
 R5165: - 2 m[13,0,12] + 4 m[13,0,13] + 11 m[13,0,14] - 2 m[13,0,15]
   + 9 m[13,1,12] + 9 m[13,1,13] + 14 m[13,1,14] + 14 m[13,1,15]
   - 50000 c[13,3,-1.0] >= -49984
 R5166: 5 m[13,0,12] + 2 m[13,0,13] + 2 m[13,0,14] + 4 m[13,0,15]
   + 3 m[13,1,13] + m[13,1,15] - 50000 c[13,3,-1.0] >= -49995
 R5167: - 3324 m[13,0,12] + m[13,0,13] + 3324 m[13,0,15] + m[13,1,12]
   - 583 m[13,1,13] - 584 m[13,1,14] - 2740 m[13,1,15] - 50000 c[13,3,-1.0]
   >= -53907
 R5168: 15 m[13,0,12] - 2 m[13,0,13] + 3 m[13,0,14] - 10 m[13,0,15]
   - m[13,1,12] - 3 m[13,1,13] - 11 m[13,1,14] - 5 m[13,1,15]
   - 50000 c[13,3,-1.0] >= -50017
 R5169: - 5 m[13,0,12] - 2 m[13,0,13] + m[13,0,14] - 10 m[13,0,15]
   - 3 m[13,1,12] - 3 m[13,1,13] - 11 m[13,1,14] + 15 m[13,1,15]
   - 50000 c[13,3,-1.0] >= -50019
 R5170: c[13,4,0.0] + c[13,4,-3.0] + c[13,4,-2.0] + c[13,4,-1.41504]
   + c[13,4,-1.0] = 1
 R5171: - m[13,0,16] - m[13,0,17] - m[13,0,18] - m[13,0,19] - m[13,1,16]
   - m[13,1,17] - m[13,1,18] - m[13,1,19] - 50000 c[13,4,0.0] >= -50000
 R5172: c[13,4,-3.0] = 0
 R5173: - m[13,0,16] - m[13,0,19] - m[13,1,18] - m[13,1,19]
   - 50000 c[13,4,-2.0] >= -50003
 R5174: m[13,0,16] + 2 m[13,0,19] + m[13,1,19] - 50000 c[13,4,-2.0]
   >= -49998
 R5175: 3 m[13,0,16] + m[13,0,19] + 4 m[13,1,18] + 2 m[13,1,19]
   - 50000 c[13,4,-2.0] >= -49995
 R5176: c[13,4,-1.41504] = 0
 R5177: - 6649 m[13,0,16] + 3 m[13,0,17] - 7 m[13,0,18] + 4 m[13,0,19]
   - 5 m[13,1,16] - m[13,1,17] + 6639 m[13,1,18] - 6648 m[13,1,19]
   - 50000 c[13,4,-1.0] >= -56657
 R5178: 10 m[13,0,16] + 2 m[13,0,17] - 6641 m[13,0,18] - 6649 m[13,0,19]
   + m[13,1,16] + 3 m[13,1,17] - 6647 m[13,1,18] - 3 m[13,1,19]
   - 50000 c[13,4,-1.0] >= -63289
 R5179: 6 m[13,0,16] - m[13,0,17] - 2 m[13,0,18] + 4 m[13,0,19]
   - 2 m[13,1,17] + 5 m[13,1,18] + 4 m[13,1,19] - 50000 c[13,4,-1.0]
   >= -49999
 R5180: - 17 m[13,0,16] - 4 m[13,0,17] + 5 m[13,0,18] - m[13,0,19]
   + 4 m[13,1,16] + 2 m[13,1,17] + 13 m[13,1,18] - 10 m[13,1,19]
   - 50000 c[13,4,-1.0] >= -50015
 R5181: - 2 m[13,0,16] + 4 m[13,0,17] + 11 m[13,0,18] - 2 m[13,0,19]
   + 9 m[13,1,16] + 9 m[13,1,17] + 14 m[13,1,18] + 14 m[13,1,19]
   - 50000 c[13,4,-1.0] >= -49984
 R5182: 5 m[13,0,16] + 2 m[13,0,17] + 2 m[13,0,18] + 4 m[13,0,19]
   + 3 m[13,1,17] + m[13,1,19] - 50000 c[13,4,-1.0] >= -49995
 R5183: - 3324 m[13,0,16] + m[13,0,17] + 3324 m[13,0,19] + m[13,1,16]
   - 583 m[13,1,17] - 584 m[13,1,18] - 2740 m[13,1,19] - 50000 c[13,4,-1.0]
   >= -53907
 R5184: 15 m[13,0,16] - 2 m[13,0,17] + 3 m[13,0,18] - 10 m[13,0,19]
   - m[13,1,16] - 3 m[13,1,17] - 11 m[13,1,18] - 5 m[13,1,19]
   - 50000 c[13,4,-1.0] >= -50017
 R5185: - 5 m[13,0,16] - 2 m[13,0,17] + m[13,0,18] - 10 m[13,0,19]
   - 3 m[13,1,16] - 3 m[13,1,17] - 11 m[13,1,18] + 15 m[13,1,19]
   - 50000 c[13,4,-1.0] >= -50019
 R5186: c[13,5,0.0] + c[13,5,-3.0] + c[13,5,-2.0] + c[13,5,-1.41504]
   + c[13,5,-1.0] = 1
 R5187: - m[13,0,20] - m[13,0,21] - m[13,0,22] - m[13,0,23] - m[13,1,20]
   - m[13,1,21] - m[13,1,22] - m[13,1,23] - 50000 c[13,5,0.0] >= -50000
 R5188: c[13,5,-3.0] = 0
 R5189: - m[13,0,20] - m[13,0,23] - m[13,1,22] - m[13,1,23]
   - 50000 c[13,5,-2.0] >= -50003
 R5190: m[13,0,20] + 2 m[13,0,23] + m[13,1,23] - 50000 c[13,5,-2.0]
   >= -49998
 R5191: 3 m[13,0,20] + m[13,0,23] + 4 m[13,1,22] + 2 m[13,1,23]
   - 50000 c[13,5,-2.0] >= -49995
 R5192: c[13,5,-1.41504] = 0
 R5193: - 6649 m[13,0,20] + 3 m[13,0,21] - 7 m[13,0,22] + 4 m[13,0,23]
   - 5 m[13,1,20] - m[13,1,21] + 6639 m[13,1,22] - 6648 m[13,1,23]
   - 50000 c[13,5,-1.0] >= -56657
 R5194: 10 m[13,0,20] + 2 m[13,0,21] - 6641 m[13,0,22] - 6649 m[13,0,23]
   + m[13,1,20] + 3 m[13,1,21] - 6647 m[13,1,22] - 3 m[13,1,23]
   - 50000 c[13,5,-1.0] >= -63289
 R5195: 6 m[13,0,20] - m[13,0,21] - 2 m[13,0,22] + 4 m[13,0,23]
   - 2 m[13,1,21] + 5 m[13,1,22] + 4 m[13,1,23] - 50000 c[13,5,-1.0]
   >= -49999
 R5196: - 17 m[13,0,20] - 4 m[13,0,21] + 5 m[13,0,22] - m[13,0,23]
   + 4 m[13,1,20] + 2 m[13,1,21] + 13 m[13,1,22] - 10 m[13,1,23]
   - 50000 c[13,5,-1.0] >= -50015
 R5197: - 2 m[13,0,20] + 4 m[13,0,21] + 11 m[13,0,22] - 2 m[13,0,23]
   + 9 m[13,1,20] + 9 m[13,1,21] + 14 m[13,1,22] + 14 m[13,1,23]
   - 50000 c[13,5,-1.0] >= -49984
 R5198: 5 m[13,0,20] + 2 m[13,0,21] + 2 m[13,0,22] + 4 m[13,0,23]
   + 3 m[13,1,21] + m[13,1,23] - 50000 c[13,5,-1.0] >= -49995
 R5199: - 3324 m[13,0,20] + m[13,0,21] + 3324 m[13,0,23] + m[13,1,20]
   - 583 m[13,1,21] - 584 m[13,1,22] - 2740 m[13,1,23] - 50000 c[13,5,-1.0]
   >= -53907
 R5200: 15 m[13,0,20] - 2 m[13,0,21] + 3 m[13,0,22] - 10 m[13,0,23]
   - m[13,1,20] - 3 m[13,1,21] - 11 m[13,1,22] - 5 m[13,1,23]
   - 50000 c[13,5,-1.0] >= -50017
 R5201: - 5 m[13,0,20] - 2 m[13,0,21] + m[13,0,22] - 10 m[13,0,23]
   - 3 m[13,1,20] - 3 m[13,1,21] - 11 m[13,1,22] + 15 m[13,1,23]
   - 50000 c[13,5,-1.0] >= -50019
 R5202: c[13,6,0.0] + c[13,6,-3.0] + c[13,6,-2.0] + c[13,6,-1.41504]
   + c[13,6,-1.0] = 1
 R5203: - m[13,0,24] - m[13,0,25] - m[13,0,26] - m[13,0,27] - m[13,1,24]
   - m[13,1,25] - m[13,1,26] - m[13,1,27] - 50000 c[13,6,0.0] >= -50000
 R5204: c[13,6,-3.0] = 0
 R5205: - m[13,0,24] - m[13,0,27] - m[13,1,26] - m[13,1,27]
   - 50000 c[13,6,-2.0] >= -50003
 R5206: m[13,0,24] + 2 m[13,0,27] + m[13,1,27] - 50000 c[13,6,-2.0]
   >= -49998
 R5207: 3 m[13,0,24] + m[13,0,27] + 4 m[13,1,26] + 2 m[13,1,27]
   - 50000 c[13,6,-2.0] >= -49995
 R5208: c[13,6,-1.41504] = 0
 R5209: - 6649 m[13,0,24] + 3 m[13,0,25] - 7 m[13,0,26] + 4 m[13,0,27]
   - 5 m[13,1,24] - m[13,1,25] + 6639 m[13,1,26] - 6648 m[13,1,27]
   - 50000 c[13,6,-1.0] >= -56657
 R5210: 10 m[13,0,24] + 2 m[13,0,25] - 6641 m[13,0,26] - 6649 m[13,0,27]
   + m[13,1,24] + 3 m[13,1,25] - 6647 m[13,1,26] - 3 m[13,1,27]
   - 50000 c[13,6,-1.0] >= -63289
 R5211: 6 m[13,0,24] - m[13,0,25] - 2 m[13,0,26] + 4 m[13,0,27]
   - 2 m[13,1,25] + 5 m[13,1,26] + 4 m[13,1,27] - 50000 c[13,6,-1.0]
   >= -49999
 R5212: - 17 m[13,0,24] - 4 m[13,0,25] + 5 m[13,0,26] - m[13,0,27]
   + 4 m[13,1,24] + 2 m[13,1,25] + 13 m[13,1,26] - 10 m[13,1,27]
   - 50000 c[13,6,-1.0] >= -50015
 R5213: - 2 m[13,0,24] + 4 m[13,0,25] + 11 m[13,0,26] - 2 m[13,0,27]
   + 9 m[13,1,24] + 9 m[13,1,25] + 14 m[13,1,26] + 14 m[13,1,27]
   - 50000 c[13,6,-1.0] >= -49984
 R5214: 5 m[13,0,24] + 2 m[13,0,25] + 2 m[13,0,26] + 4 m[13,0,27]
   + 3 m[13,1,25] + m[13,1,27] - 50000 c[13,6,-1.0] >= -49995
 R5215: - 3324 m[13,0,24] + m[13,0,25] + 3324 m[13,0,27] + m[13,1,24]
   - 583 m[13,1,25] - 584 m[13,1,26] - 2740 m[13,1,27] - 50000 c[13,6,-1.0]
   >= -53907
 R5216: 15 m[13,0,24] - 2 m[13,0,25] + 3 m[13,0,26] - 10 m[13,0,27]
   - m[13,1,24] - 3 m[13,1,25] - 11 m[13,1,26] - 5 m[13,1,27]
   - 50000 c[13,6,-1.0] >= -50017
 R5217: - 5 m[13,0,24] - 2 m[13,0,25] + m[13,0,26] - 10 m[13,0,27]
   - 3 m[13,1,24] - 3 m[13,1,25] - 11 m[13,1,26] + 15 m[13,1,27]
   - 50000 c[13,6,-1.0] >= -50019
 R5218: c[13,7,0.0] + c[13,7,-3.0] + c[13,7,-2.0] + c[13,7,-1.41504]
   + c[13,7,-1.0] = 1
 R5219: - m[13,0,28] - m[13,0,29] - m[13,0,30] - m[13,0,31] - m[13,1,28]
   - m[13,1,29] - m[13,1,30] - m[13,1,31] - 50000 c[13,7,0.0] >= -50000
 R5220: c[13,7,-3.0] = 0
 R5221: - m[13,0,28] - m[13,0,31] - m[13,1,30] - m[13,1,31]
   - 50000 c[13,7,-2.0] >= -50003
 R5222: m[13,0,28] + 2 m[13,0,31] + m[13,1,31] - 50000 c[13,7,-2.0]
   >= -49998
 R5223: 3 m[13,0,28] + m[13,0,31] + 4 m[13,1,30] + 2 m[13,1,31]
   - 50000 c[13,7,-2.0] >= -49995
 R5224: c[13,7,-1.41504] = 0
 R5225: - 6649 m[13,0,28] + 3 m[13,0,29] - 7 m[13,0,30] + 4 m[13,0,31]
   - 5 m[13,1,28] - m[13,1,29] + 6639 m[13,1,30] - 6648 m[13,1,31]
   - 50000 c[13,7,-1.0] >= -56657
 R5226: 10 m[13,0,28] + 2 m[13,0,29] - 6641 m[13,0,30] - 6649 m[13,0,31]
   + m[13,1,28] + 3 m[13,1,29] - 6647 m[13,1,30] - 3 m[13,1,31]
   - 50000 c[13,7,-1.0] >= -63289
 R5227: 6 m[13,0,28] - m[13,0,29] - 2 m[13,0,30] + 4 m[13,0,31]
   - 2 m[13,1,29] + 5 m[13,1,30] + 4 m[13,1,31] - 50000 c[13,7,-1.0]
   >= -49999
 R5228: - 17 m[13,0,28] - 4 m[13,0,29] + 5 m[13,0,30] - m[13,0,31]
   + 4 m[13,1,28] + 2 m[13,1,29] + 13 m[13,1,30] - 10 m[13,1,31]
   - 50000 c[13,7,-1.0] >= -50015
 R5229: - 2 m[13,0,28] + 4 m[13,0,29] + 11 m[13,0,30] - 2 m[13,0,31]
   + 9 m[13,1,28] + 9 m[13,1,29] + 14 m[13,1,30] + 14 m[13,1,31]
   - 50000 c[13,7,-1.0] >= -49984
 R5230: 5 m[13,0,28] + 2 m[13,0,29] + 2 m[13,0,30] + 4 m[13,0,31]
   + 3 m[13,1,29] + m[13,1,31] - 50000 c[13,7,-1.0] >= -49995
 R5231: - 3324 m[13,0,28] + m[13,0,29] + 3324 m[13,0,31] + m[13,1,28]
   - 583 m[13,1,29] - 584 m[13,1,30] - 2740 m[13,1,31] - 50000 c[13,7,-1.0]
   >= -53907
 R5232: 15 m[13,0,28] - 2 m[13,0,29] + 3 m[13,0,30] - 10 m[13,0,31]
   - m[13,1,28] - 3 m[13,1,29] - 11 m[13,1,30] - 5 m[13,1,31]
   - 50000 c[13,7,-1.0] >= -50017
 R5233: - 5 m[13,0,28] - 2 m[13,0,29] + m[13,0,30] - 10 m[13,0,31]
   - 3 m[13,1,28] - 3 m[13,1,29] - 11 m[13,1,30] + 15 m[13,1,31]
   - 50000 c[13,7,-1.0] >= -50019
 R5234: c[13,8,0.0] + c[13,8,-3.0] + c[13,8,-2.0] + c[13,8,-1.41504]
   + c[13,8,-1.0] = 1
 R5235: - m[13,0,32] - m[13,0,33] - m[13,0,34] - m[13,0,35] - m[13,1,32]
   - m[13,1,33] - m[13,1,34] - m[13,1,35] - 50000 c[13,8,0.0] >= -50000
 R5236: c[13,8,-3.0] = 0
 R5237: - m[13,0,32] - m[13,0,35] - m[13,1,34] - m[13,1,35]
   - 50000 c[13,8,-2.0] >= -50003
 R5238: m[13,0,32] + 2 m[13,0,35] + m[13,1,35] - 50000 c[13,8,-2.0]
   >= -49998
 R5239: 3 m[13,0,32] + m[13,0,35] + 4 m[13,1,34] + 2 m[13,1,35]
   - 50000 c[13,8,-2.0] >= -49995
 R5240: c[13,8,-1.41504] = 0
 R5241: - 6649 m[13,0,32] + 3 m[13,0,33] - 7 m[13,0,34] + 4 m[13,0,35]
   - 5 m[13,1,32] - m[13,1,33] + 6639 m[13,1,34] - 6648 m[13,1,35]
   - 50000 c[13,8,-1.0] >= -56657
 R5242: 10 m[13,0,32] + 2 m[13,0,33] - 6641 m[13,0,34] - 6649 m[13,0,35]
   + m[13,1,32] + 3 m[13,1,33] - 6647 m[13,1,34] - 3 m[13,1,35]
   - 50000 c[13,8,-1.0] >= -63289
 R5243: 6 m[13,0,32] - m[13,0,33] - 2 m[13,0,34] + 4 m[13,0,35]
   - 2 m[13,1,33] + 5 m[13,1,34] + 4 m[13,1,35] - 50000 c[13,8,-1.0]
   >= -49999
 R5244: - 17 m[13,0,32] - 4 m[13,0,33] + 5 m[13,0,34] - m[13,0,35]
   + 4 m[13,1,32] + 2 m[13,1,33] + 13 m[13,1,34] - 10 m[13,1,35]
   - 50000 c[13,8,-1.0] >= -50015
 R5245: - 2 m[13,0,32] + 4 m[13,0,33] + 11 m[13,0,34] - 2 m[13,0,35]
   + 9 m[13,1,32] + 9 m[13,1,33] + 14 m[13,1,34] + 14 m[13,1,35]
   - 50000 c[13,8,-1.0] >= -49984
 R5246: 5 m[13,0,32] + 2 m[13,0,33] + 2 m[13,0,34] + 4 m[13,0,35]
   + 3 m[13,1,33] + m[13,1,35] - 50000 c[13,8,-1.0] >= -49995
 R5247: - 3324 m[13,0,32] + m[13,0,33] + 3324 m[13,0,35] + m[13,1,32]
   - 583 m[13,1,33] - 584 m[13,1,34] - 2740 m[13,1,35] - 50000 c[13,8,-1.0]
   >= -53907
 R5248: 15 m[13,0,32] - 2 m[13,0,33] + 3 m[13,0,34] - 10 m[13,0,35]
   - m[13,1,32] - 3 m[13,1,33] - 11 m[13,1,34] - 5 m[13,1,35]
   - 50000 c[13,8,-1.0] >= -50017
 R5249: - 5 m[13,0,32] - 2 m[13,0,33] + m[13,0,34] - 10 m[13,0,35]
   - 3 m[13,1,32] - 3 m[13,1,33] - 11 m[13,1,34] + 15 m[13,1,35]
   - 50000 c[13,8,-1.0] >= -50019
 R5250: c[13,9,0.0] + c[13,9,-3.0] + c[13,9,-2.0] + c[13,9,-1.41504]
   + c[13,9,-1.0] = 1
 R5251: - m[13,0,36] - m[13,0,37] - m[13,0,38] - m[13,0,39] - m[13,1,36]
   - m[13,1,37] - m[13,1,38] - m[13,1,39] - 50000 c[13,9,0.0] >= -50000
 R5252: c[13,9,-3.0] = 0
 R5253: - m[13,0,36] - m[13,0,39] - m[13,1,38] - m[13,1,39]
   - 50000 c[13,9,-2.0] >= -50003
 R5254: m[13,0,36] + 2 m[13,0,39] + m[13,1,39] - 50000 c[13,9,-2.0]
   >= -49998
 R5255: 3 m[13,0,36] + m[13,0,39] + 4 m[13,1,38] + 2 m[13,1,39]
   - 50000 c[13,9,-2.0] >= -49995
 R5256: c[13,9,-1.41504] = 0
 R5257: - 6649 m[13,0,36] + 3 m[13,0,37] - 7 m[13,0,38] + 4 m[13,0,39]
   - 5 m[13,1,36] - m[13,1,37] + 6639 m[13,1,38] - 6648 m[13,1,39]
   - 50000 c[13,9,-1.0] >= -56657
 R5258: 10 m[13,0,36] + 2 m[13,0,37] - 6641 m[13,0,38] - 6649 m[13,0,39]
   + m[13,1,36] + 3 m[13,1,37] - 6647 m[13,1,38] - 3 m[13,1,39]
   - 50000 c[13,9,-1.0] >= -63289
 R5259: 6 m[13,0,36] - m[13,0,37] - 2 m[13,0,38] + 4 m[13,0,39]
   - 2 m[13,1,37] + 5 m[13,1,38] + 4 m[13,1,39] - 50000 c[13,9,-1.0]
   >= -49999
 R5260: - 17 m[13,0,36] - 4 m[13,0,37] + 5 m[13,0,38] - m[13,0,39]
   + 4 m[13,1,36] + 2 m[13,1,37] + 13 m[13,1,38] - 10 m[13,1,39]
   - 50000 c[13,9,-1.0] >= -50015
 R5261: - 2 m[13,0,36] + 4 m[13,0,37] + 11 m[13,0,38] - 2 m[13,0,39]
   + 9 m[13,1,36] + 9 m[13,1,37] + 14 m[13,1,38] + 14 m[13,1,39]
   - 50000 c[13,9,-1.0] >= -49984
 R5262: 5 m[13,0,36] + 2 m[13,0,37] + 2 m[13,0,38] + 4 m[13,0,39]
   + 3 m[13,1,37] + m[13,1,39] - 50000 c[13,9,-1.0] >= -49995
 R5263: - 3324 m[13,0,36] + m[13,0,37] + 3324 m[13,0,39] + m[13,1,36]
   - 583 m[13,1,37] - 584 m[13,1,38] - 2740 m[13,1,39] - 50000 c[13,9,-1.0]
   >= -53907
 R5264: 15 m[13,0,36] - 2 m[13,0,37] + 3 m[13,0,38] - 10 m[13,0,39]
   - m[13,1,36] - 3 m[13,1,37] - 11 m[13,1,38] - 5 m[13,1,39]
   - 50000 c[13,9,-1.0] >= -50017
 R5265: - 5 m[13,0,36] - 2 m[13,0,37] + m[13,0,38] - 10 m[13,0,39]
   - 3 m[13,1,36] - 3 m[13,1,37] - 11 m[13,1,38] + 15 m[13,1,39]
   - 50000 c[13,9,-1.0] >= -50019
 R5266: c[13,10,0.0] + c[13,10,-3.0] + c[13,10,-2.0] + c[13,10,-1.41504]
   + c[13,10,-1.0] = 1
 R5267: - m[13,0,40] - m[13,0,41] - m[13,0,42] - m[13,0,43] - m[13,1,40]
   - m[13,1,41] - m[13,1,42] - m[13,1,43] - 50000 c[13,10,0.0] >= -50000
 R5268: c[13,10,-3.0] = 0
 R5269: - m[13,0,40] - m[13,0,43] - m[13,1,42] - m[13,1,43]
   - 50000 c[13,10,-2.0] >= -50003
 R5270: m[13,0,40] + 2 m[13,0,43] + m[13,1,43] - 50000 c[13,10,-2.0]
   >= -49998
 R5271: 3 m[13,0,40] + m[13,0,43] + 4 m[13,1,42] + 2 m[13,1,43]
   - 50000 c[13,10,-2.0] >= -49995
 R5272: c[13,10,-1.41504] = 0
 R5273: - 6649 m[13,0,40] + 3 m[13,0,41] - 7 m[13,0,42] + 4 m[13,0,43]
   - 5 m[13,1,40] - m[13,1,41] + 6639 m[13,1,42] - 6648 m[13,1,43]
   - 50000 c[13,10,-1.0] >= -56657
 R5274: 10 m[13,0,40] + 2 m[13,0,41] - 6641 m[13,0,42] - 6649 m[13,0,43]
   + m[13,1,40] + 3 m[13,1,41] - 6647 m[13,1,42] - 3 m[13,1,43]
   - 50000 c[13,10,-1.0] >= -63289
 R5275: 6 m[13,0,40] - m[13,0,41] - 2 m[13,0,42] + 4 m[13,0,43]
   - 2 m[13,1,41] + 5 m[13,1,42] + 4 m[13,1,43] - 50000 c[13,10,-1.0]
   >= -49999
 R5276: - 17 m[13,0,40] - 4 m[13,0,41] + 5 m[13,0,42] - m[13,0,43]
   + 4 m[13,1,40] + 2 m[13,1,41] + 13 m[13,1,42] - 10 m[13,1,43]
   - 50000 c[13,10,-1.0] >= -50015
 R5277: - 2 m[13,0,40] + 4 m[13,0,41] + 11 m[13,0,42] - 2 m[13,0,43]
   + 9 m[13,1,40] + 9 m[13,1,41] + 14 m[13,1,42] + 14 m[13,1,43]
   - 50000 c[13,10,-1.0] >= -49984
 R5278: 5 m[13,0,40] + 2 m[13,0,41] + 2 m[13,0,42] + 4 m[13,0,43]
   + 3 m[13,1,41] + m[13,1,43] - 50000 c[13,10,-1.0] >= -49995
 R5279: - 3324 m[13,0,40] + m[13,0,41] + 3324 m[13,0,43] + m[13,1,40]
   - 583 m[13,1,41] - 584 m[13,1,42] - 2740 m[13,1,43]
   - 50000 c[13,10,-1.0] >= -53907
 R5280: 15 m[13,0,40] - 2 m[13,0,41] + 3 m[13,0,42] - 10 m[13,0,43]
   - m[13,1,40] - 3 m[13,1,41] - 11 m[13,1,42] - 5 m[13,1,43]
   - 50000 c[13,10,-1.0] >= -50017
 R5281: - 5 m[13,0,40] - 2 m[13,0,41] + m[13,0,42] - 10 m[13,0,43]
   - 3 m[13,1,40] - 3 m[13,1,41] - 11 m[13,1,42] + 15 m[13,1,43]
   - 50000 c[13,10,-1.0] >= -50019
 R5282: c[13,11,0.0] + c[13,11,-3.0] + c[13,11,-2.0] + c[13,11,-1.41504]
   + c[13,11,-1.0] = 1
 R5283: - m[13,0,44] - m[13,0,45] - m[13,0,46] - m[13,0,47] - m[13,1,44]
   - m[13,1,45] - m[13,1,46] - m[13,1,47] - 50000 c[13,11,0.0] >= -50000
 R5284: c[13,11,-3.0] = 0
 R5285: - m[13,0,44] - m[13,0,47] - m[13,1,46] - m[13,1,47]
   - 50000 c[13,11,-2.0] >= -50003
 R5286: m[13,0,44] + 2 m[13,0,47] + m[13,1,47] - 50000 c[13,11,-2.0]
   >= -49998
 R5287: 3 m[13,0,44] + m[13,0,47] + 4 m[13,1,46] + 2 m[13,1,47]
   - 50000 c[13,11,-2.0] >= -49995
 R5288: c[13,11,-1.41504] = 0
 R5289: - 6649 m[13,0,44] + 3 m[13,0,45] - 7 m[13,0,46] + 4 m[13,0,47]
   - 5 m[13,1,44] - m[13,1,45] + 6639 m[13,1,46] - 6648 m[13,1,47]
   - 50000 c[13,11,-1.0] >= -56657
 R5290: 10 m[13,0,44] + 2 m[13,0,45] - 6641 m[13,0,46] - 6649 m[13,0,47]
   + m[13,1,44] + 3 m[13,1,45] - 6647 m[13,1,46] - 3 m[13,1,47]
   - 50000 c[13,11,-1.0] >= -63289
 R5291: 6 m[13,0,44] - m[13,0,45] - 2 m[13,0,46] + 4 m[13,0,47]
   - 2 m[13,1,45] + 5 m[13,1,46] + 4 m[13,1,47] - 50000 c[13,11,-1.0]
   >= -49999
 R5292: - 17 m[13,0,44] - 4 m[13,0,45] + 5 m[13,0,46] - m[13,0,47]
   + 4 m[13,1,44] + 2 m[13,1,45] + 13 m[13,1,46] - 10 m[13,1,47]
   - 50000 c[13,11,-1.0] >= -50015
 R5293: - 2 m[13,0,44] + 4 m[13,0,45] + 11 m[13,0,46] - 2 m[13,0,47]
   + 9 m[13,1,44] + 9 m[13,1,45] + 14 m[13,1,46] + 14 m[13,1,47]
   - 50000 c[13,11,-1.0] >= -49984
 R5294: 5 m[13,0,44] + 2 m[13,0,45] + 2 m[13,0,46] + 4 m[13,0,47]
   + 3 m[13,1,45] + m[13,1,47] - 50000 c[13,11,-1.0] >= -49995
 R5295: - 3324 m[13,0,44] + m[13,0,45] + 3324 m[13,0,47] + m[13,1,44]
   - 583 m[13,1,45] - 584 m[13,1,46] - 2740 m[13,1,47]
   - 50000 c[13,11,-1.0] >= -53907
 R5296: 15 m[13,0,44] - 2 m[13,0,45] + 3 m[13,0,46] - 10 m[13,0,47]
   - m[13,1,44] - 3 m[13,1,45] - 11 m[13,1,46] - 5 m[13,1,47]
   - 50000 c[13,11,-1.0] >= -50017
 R5297: - 5 m[13,0,44] - 2 m[13,0,45] + m[13,0,46] - 10 m[13,0,47]
   - 3 m[13,1,44] - 3 m[13,1,45] - 11 m[13,1,46] + 15 m[13,1,47]
   - 50000 c[13,11,-1.0] >= -50019
 R5298: c[13,12,0.0] + c[13,12,-3.0] + c[13,12,-2.0] + c[13,12,-1.41504]
   + c[13,12,-1.0] = 1
 R5299: - m[13,0,48] - m[13,0,49] - m[13,0,50] - m[13,0,51] - m[13,1,48]
   - m[13,1,49] - m[13,1,50] - m[13,1,51] - 50000 c[13,12,0.0] >= -50000
 R5300: c[13,12,-3.0] = 0
 R5301: - m[13,0,48] - m[13,0,51] - m[13,1,50] - m[13,1,51]
   - 50000 c[13,12,-2.0] >= -50003
 R5302: m[13,0,48] + 2 m[13,0,51] + m[13,1,51] - 50000 c[13,12,-2.0]
   >= -49998
 R5303: 3 m[13,0,48] + m[13,0,51] + 4 m[13,1,50] + 2 m[13,1,51]
   - 50000 c[13,12,-2.0] >= -49995
 R5304: c[13,12,-1.41504] = 0
 R5305: - 6649 m[13,0,48] + 3 m[13,0,49] - 7 m[13,0,50] + 4 m[13,0,51]
   - 5 m[13,1,48] - m[13,1,49] + 6639 m[13,1,50] - 6648 m[13,1,51]
   - 50000 c[13,12,-1.0] >= -56657
 R5306: 10 m[13,0,48] + 2 m[13,0,49] - 6641 m[13,0,50] - 6649 m[13,0,51]
   + m[13,1,48] + 3 m[13,1,49] - 6647 m[13,1,50] - 3 m[13,1,51]
   - 50000 c[13,12,-1.0] >= -63289
 R5307: 6 m[13,0,48] - m[13,0,49] - 2 m[13,0,50] + 4 m[13,0,51]
   - 2 m[13,1,49] + 5 m[13,1,50] + 4 m[13,1,51] - 50000 c[13,12,-1.0]
   >= -49999
 R5308: - 17 m[13,0,48] - 4 m[13,0,49] + 5 m[13,0,50] - m[13,0,51]
   + 4 m[13,1,48] + 2 m[13,1,49] + 13 m[13,1,50] - 10 m[13,1,51]
   - 50000 c[13,12,-1.0] >= -50015
 R5309: - 2 m[13,0,48] + 4 m[13,0,49] + 11 m[13,0,50] - 2 m[13,0,51]
   + 9 m[13,1,48] + 9 m[13,1,49] + 14 m[13,1,50] + 14 m[13,1,51]
   - 50000 c[13,12,-1.0] >= -49984
 R5310: 5 m[13,0,48] + 2 m[13,0,49] + 2 m[13,0,50] + 4 m[13,0,51]
   + 3 m[13,1,49] + m[13,1,51] - 50000 c[13,12,-1.0] >= -49995
 R5311: - 3324 m[13,0,48] + m[13,0,49] + 3324 m[13,0,51] + m[13,1,48]
   - 583 m[13,1,49] - 584 m[13,1,50] - 2740 m[13,1,51]
   - 50000 c[13,12,-1.0] >= -53907
 R5312: 15 m[13,0,48] - 2 m[13,0,49] + 3 m[13,0,50] - 10 m[13,0,51]
   - m[13,1,48] - 3 m[13,1,49] - 11 m[13,1,50] - 5 m[13,1,51]
   - 50000 c[13,12,-1.0] >= -50017
 R5313: - 5 m[13,0,48] - 2 m[13,0,49] + m[13,0,50] - 10 m[13,0,51]
   - 3 m[13,1,48] - 3 m[13,1,49] - 11 m[13,1,50] + 15 m[13,1,51]
   - 50000 c[13,12,-1.0] >= -50019
 R5314: c[13,13,0.0] + c[13,13,-3.0] + c[13,13,-2.0] + c[13,13,-1.41504]
   + c[13,13,-1.0] = 1
 R5315: - m[13,0,52] - m[13,0,53] - m[13,0,54] - m[13,0,55] - m[13,1,52]
   - m[13,1,53] - m[13,1,54] - m[13,1,55] - 50000 c[13,13,0.0] >= -50000
 R5316: c[13,13,-3.0] = 0
 R5317: - m[13,0,52] - m[13,0,55] - m[13,1,54] - m[13,1,55]
   - 50000 c[13,13,-2.0] >= -50003
 R5318: m[13,0,52] + 2 m[13,0,55] + m[13,1,55] - 50000 c[13,13,-2.0]
   >= -49998
 R5319: 3 m[13,0,52] + m[13,0,55] + 4 m[13,1,54] + 2 m[13,1,55]
   - 50000 c[13,13,-2.0] >= -49995
 R5320: c[13,13,-1.41504] = 0
 R5321: - 6649 m[13,0,52] + 3 m[13,0,53] - 7 m[13,0,54] + 4 m[13,0,55]
   - 5 m[13,1,52] - m[13,1,53] + 6639 m[13,1,54] - 6648 m[13,1,55]
   - 50000 c[13,13,-1.0] >= -56657
 R5322: 10 m[13,0,52] + 2 m[13,0,53] - 6641 m[13,0,54] - 6649 m[13,0,55]
   + m[13,1,52] + 3 m[13,1,53] - 6647 m[13,1,54] - 3 m[13,1,55]
   - 50000 c[13,13,-1.0] >= -63289
 R5323: 6 m[13,0,52] - m[13,0,53] - 2 m[13,0,54] + 4 m[13,0,55]
   - 2 m[13,1,53] + 5 m[13,1,54] + 4 m[13,1,55] - 50000 c[13,13,-1.0]
   >= -49999
 R5324: - 17 m[13,0,52] - 4 m[13,0,53] + 5 m[13,0,54] - m[13,0,55]
   + 4 m[13,1,52] + 2 m[13,1,53] + 13 m[13,1,54] - 10 m[13,1,55]
   - 50000 c[13,13,-1.0] >= -50015
 R5325: - 2 m[13,0,52] + 4 m[13,0,53] + 11 m[13,0,54] - 2 m[13,0,55]
   + 9 m[13,1,52] + 9 m[13,1,53] + 14 m[13,1,54] + 14 m[13,1,55]
   - 50000 c[13,13,-1.0] >= -49984
 R5326: 5 m[13,0,52] + 2 m[13,0,53] + 2 m[13,0,54] + 4 m[13,0,55]
   + 3 m[13,1,53] + m[13,1,55] - 50000 c[13,13,-1.0] >= -49995
 R5327: - 3324 m[13,0,52] + m[13,0,53] + 3324 m[13,0,55] + m[13,1,52]
   - 583 m[13,1,53] - 584 m[13,1,54] - 2740 m[13,1,55]
   - 50000 c[13,13,-1.0] >= -53907
 R5328: 15 m[13,0,52] - 2 m[13,0,53] + 3 m[13,0,54] - 10 m[13,0,55]
   - m[13,1,52] - 3 m[13,1,53] - 11 m[13,1,54] - 5 m[13,1,55]
   - 50000 c[13,13,-1.0] >= -50017
 R5329: - 5 m[13,0,52] - 2 m[13,0,53] + m[13,0,54] - 10 m[13,0,55]
   - 3 m[13,1,52] - 3 m[13,1,53] - 11 m[13,1,54] + 15 m[13,1,55]
   - 50000 c[13,13,-1.0] >= -50019
 R5330: c[13,14,0.0] + c[13,14,-3.0] + c[13,14,-2.0] + c[13,14,-1.41504]
   + c[13,14,-1.0] = 1
 R5331: - m[13,0,56] - m[13,0,57] - m[13,0,58] - m[13,0,59] - m[13,1,56]
   - m[13,1,57] - m[13,1,58] - m[13,1,59] - 50000 c[13,14,0.0] >= -50000
 R5332: c[13,14,-3.0] = 0
 R5333: - m[13,0,56] - m[13,0,59] - m[13,1,58] - m[13,1,59]
   - 50000 c[13,14,-2.0] >= -50003
 R5334: m[13,0,56] + 2 m[13,0,59] + m[13,1,59] - 50000 c[13,14,-2.0]
   >= -49998
 R5335: 3 m[13,0,56] + m[13,0,59] + 4 m[13,1,58] + 2 m[13,1,59]
   - 50000 c[13,14,-2.0] >= -49995
 R5336: c[13,14,-1.41504] = 0
 R5337: - 6649 m[13,0,56] + 3 m[13,0,57] - 7 m[13,0,58] + 4 m[13,0,59]
   - 5 m[13,1,56] - m[13,1,57] + 6639 m[13,1,58] - 6648 m[13,1,59]
   - 50000 c[13,14,-1.0] >= -56657
 R5338: 10 m[13,0,56] + 2 m[13,0,57] - 6641 m[13,0,58] - 6649 m[13,0,59]
   + m[13,1,56] + 3 m[13,1,57] - 6647 m[13,1,58] - 3 m[13,1,59]
   - 50000 c[13,14,-1.0] >= -63289
 R5339: 6 m[13,0,56] - m[13,0,57] - 2 m[13,0,58] + 4 m[13,0,59]
   - 2 m[13,1,57] + 5 m[13,1,58] + 4 m[13,1,59] - 50000 c[13,14,-1.0]
   >= -49999
 R5340: - 17 m[13,0,56] - 4 m[13,0,57] + 5 m[13,0,58] - m[13,0,59]
   + 4 m[13,1,56] + 2 m[13,1,57] + 13 m[13,1,58] - 10 m[13,1,59]
   - 50000 c[13,14,-1.0] >= -50015
 R5341: - 2 m[13,0,56] + 4 m[13,0,57] + 11 m[13,0,58] - 2 m[13,0,59]
   + 9 m[13,1,56] + 9 m[13,1,57] + 14 m[13,1,58] + 14 m[13,1,59]
   - 50000 c[13,14,-1.0] >= -49984
 R5342: 5 m[13,0,56] + 2 m[13,0,57] + 2 m[13,0,58] + 4 m[13,0,59]
   + 3 m[13,1,57] + m[13,1,59] - 50000 c[13,14,-1.0] >= -49995
 R5343: - 3324 m[13,0,56] + m[13,0,57] + 3324 m[13,0,59] + m[13,1,56]
   - 583 m[13,1,57] - 584 m[13,1,58] - 2740 m[13,1,59]
   - 50000 c[13,14,-1.0] >= -53907
 R5344: 15 m[13,0,56] - 2 m[13,0,57] + 3 m[13,0,58] - 10 m[13,0,59]
   - m[13,1,56] - 3 m[13,1,57] - 11 m[13,1,58] - 5 m[13,1,59]
   - 50000 c[13,14,-1.0] >= -50017
 R5345: - 5 m[13,0,56] - 2 m[13,0,57] + m[13,0,58] - 10 m[13,0,59]
   - 3 m[13,1,56] - 3 m[13,1,57] - 11 m[13,1,58] + 15 m[13,1,59]
   - 50000 c[13,14,-1.0] >= -50019
 R5346: c[13,15,0.0] + c[13,15,-3.0] + c[13,15,-2.0] + c[13,15,-1.41504]
   + c[13,15,-1.0] = 1
 R5347: - m[13,0,60] - m[13,0,61] - m[13,0,62] - m[13,0,63] - m[13,1,60]
   - m[13,1,61] - m[13,1,62] - m[13,1,63] - 50000 c[13,15,0.0] >= -50000
 R5348: c[13,15,-3.0] = 0
 R5349: - m[13,0,60] - m[13,0,63] - m[13,1,62] - m[13,1,63]
   - 50000 c[13,15,-2.0] >= -50003
 R5350: m[13,0,60] + 2 m[13,0,63] + m[13,1,63] - 50000 c[13,15,-2.0]
   >= -49998
 R5351: 3 m[13,0,60] + m[13,0,63] + 4 m[13,1,62] + 2 m[13,1,63]
   - 50000 c[13,15,-2.0] >= -49995
 R5352: c[13,15,-1.41504] = 0
 R5353: - 6649 m[13,0,60] + 3 m[13,0,61] - 7 m[13,0,62] + 4 m[13,0,63]
   - 5 m[13,1,60] - m[13,1,61] + 6639 m[13,1,62] - 6648 m[13,1,63]
   - 50000 c[13,15,-1.0] >= -56657
 R5354: 10 m[13,0,60] + 2 m[13,0,61] - 6641 m[13,0,62] - 6649 m[13,0,63]
   + m[13,1,60] + 3 m[13,1,61] - 6647 m[13,1,62] - 3 m[13,1,63]
   - 50000 c[13,15,-1.0] >= -63289
 R5355: 6 m[13,0,60] - m[13,0,61] - 2 m[13,0,62] + 4 m[13,0,63]
   - 2 m[13,1,61] + 5 m[13,1,62] + 4 m[13,1,63] - 50000 c[13,15,-1.0]
   >= -49999
 R5356: - 17 m[13,0,60] - 4 m[13,0,61] + 5 m[13,0,62] - m[13,0,63]
   + 4 m[13,1,60] + 2 m[13,1,61] + 13 m[13,1,62] - 10 m[13,1,63]
   - 50000 c[13,15,-1.0] >= -50015
 R5357: - 2 m[13,0,60] + 4 m[13,0,61] + 11 m[13,0,62] - 2 m[13,0,63]
   + 9 m[13,1,60] + 9 m[13,1,61] + 14 m[13,1,62] + 14 m[13,1,63]
   - 50000 c[13,15,-1.0] >= -49984
 R5358: 5 m[13,0,60] + 2 m[13,0,61] + 2 m[13,0,62] + 4 m[13,0,63]
   + 3 m[13,1,61] + m[13,1,63] - 50000 c[13,15,-1.0] >= -49995
 R5359: - 3324 m[13,0,60] + m[13,0,61] + 3324 m[13,0,63] + m[13,1,60]
   - 583 m[13,1,61] - 584 m[13,1,62] - 2740 m[13,1,63]
   - 50000 c[13,15,-1.0] >= -53907
 R5360: 15 m[13,0,60] - 2 m[13,0,61] + 3 m[13,0,62] - 10 m[13,0,63]
   - m[13,1,60] - 3 m[13,1,61] - 11 m[13,1,62] - 5 m[13,1,63]
   - 50000 c[13,15,-1.0] >= -50017
 R5361: - 5 m[13,0,60] - 2 m[13,0,61] + m[13,0,62] - 10 m[13,0,63]
   - 3 m[13,1,60] - 3 m[13,1,61] - 11 m[13,1,62] + 15 m[13,1,63]
   - 50000 c[13,15,-1.0] >= -50019
 R5362: m[0,1,0] - m[1,0,0] = 0
 R5363: m[0,1,1] - m[1,0,5] = 0
 R5364: m[0,1,2] - m[1,0,50] = 0
 R5365: m[0,1,3] - m[1,0,55] = 0
 R5366: m[0,1,4] - m[1,0,4] = 0
 R5367: m[0,1,5] - m[1,0,9] = 0
 R5368: m[0,1,6] - m[1,0,54] = 0
 R5369: m[0,1,7] - m[1,0,59] = 0
 R5370: m[0,1,8] - m[1,0,8] = 0
 R5371: m[0,1,9] - m[1,0,13] = 0
 R5372: m[0,1,10] - m[1,0,58] = 0
 R5373: m[0,1,11] - m[1,0,63] = 0
 R5374: m[0,1,12] - m[1,0,12] = 0
 R5375: m[0,1,13] - m[1,0,17] = 0
 R5376: m[0,1,14] - m[1,0,62] = 0
 R5377: m[0,1,15] - m[1,0,3] = 0
 R5378: m[0,1,16] - m[1,0,16] = 0
 R5379: m[0,1,17] - m[1,0,21] = 0
 R5380: m[0,1,18] - m[1,0,2] = 0
 R5381: m[0,1,19] - m[1,0,7] = 0
 R5382: m[0,1,20] - m[1,0,20] = 0
 R5383: m[0,1,21] - m[1,0,25] = 0
 R5384: m[0,1,22] - m[1,0,6] = 0
 R5385: m[0,1,23] - m[1,0,11] = 0
 R5386: m[0,1,24] - m[1,0,24] = 0
 R5387: m[0,1,25] - m[1,0,29] = 0
 R5388: m[0,1,26] - m[1,0,10] = 0
 R5389: m[0,1,27] - m[1,0,15] = 0
 R5390: m[0,1,28] - m[1,0,28] = 0
 R5391: m[0,1,29] - m[1,0,33] = 0
 R5392: m[0,1,30] - m[1,0,14] = 0
 R5393: m[0,1,31] - m[1,0,19] = 0
 R5394: m[0,1,32] - m[1,0,32] = 0
 R5395: m[0,1,33] - m[1,0,37] = 0
 R5396: m[0,1,34] - m[1,0,18] = 0
 R5397: m[0,1,35] - m[1,0,23] = 0
 R5398: m[0,1,36] - m[1,0,36] = 0
 R5399: m[0,1,37] - m[1,0,41] = 0
 R5400: m[0,1,38] - m[1,0,22] = 0
 R5401: m[0,1,39] - m[1,0,27] = 0
 R5402: m[0,1,40] - m[1,0,40] = 0
 R5403: m[0,1,41] - m[1,0,45] = 0
 R5404: m[0,1,42] - m[1,0,26] = 0
 R5405: m[0,1,43] - m[1,0,31] = 0
 R5406: m[0,1,44] - m[1,0,44] = 0
 R5407: m[0,1,45] - m[1,0,49] = 0
 R5408: m[0,1,46] - m[1,0,30] = 0
 R5409: m[0,1,47] - m[1,0,35] = 0
 R5410: m[0,1,48] - m[1,0,48] = 0
 R5411: m[0,1,49] - m[1,0,53] = 0
 R5412: m[0,1,50] - m[1,0,34] = 0
 R5413: m[0,1,51] - m[1,0,39] = 0
 R5414: m[0,1,52] - m[1,0,52] = 0
 R5415: m[0,1,53] - m[1,0,57] = 0
 R5416: m[0,1,54] - m[1,0,38] = 0
 R5417: m[0,1,55] - m[1,0,43] = 0
 R5418: m[0,1,56] - m[1,0,56] = 0
 R5419: m[0,1,57] - m[1,0,61] = 0
 R5420: m[0,1,58] - m[1,0,42] = 0
 R5421: m[0,1,59] - m[1,0,47] = 0
 R5422: m[0,1,60] - m[1,0,60] = 0
 R5423: m[0,1,61] - m[1,0,1] = 0
 R5424: m[0,1,62] - m[1,0,46] = 0
 R5425: m[0,1,63] - m[1,0,51] = 0
 R5426: m[1,1,0] - m[2,0,0] = 0
 R5427: m[1,1,1] - m[2,0,5] = 0
 R5428: m[1,1,2] - m[2,0,50] = 0
 R5429: m[1,1,3] - m[2,0,55] = 0
 R5430: m[1,1,4] - m[2,0,4] = 0
 R5431: m[1,1,5] - m[2,0,9] = 0
 R5432: m[1,1,6] - m[2,0,54] = 0
 R5433: m[1,1,7] - m[2,0,59] = 0
 R5434: m[1,1,8] - m[2,0,8] = 0
 R5435: m[1,1,9] - m[2,0,13] = 0
 R5436: m[1,1,10] - m[2,0,58] = 0
 R5437: m[1,1,11] - m[2,0,63] = 0
 R5438: m[1,1,12] - m[2,0,12] = 0
 R5439: m[1,1,13] - m[2,0,17] = 0
 R5440: m[1,1,14] - m[2,0,62] = 0
 R5441: m[1,1,15] - m[2,0,3] = 0
 R5442: m[1,1,16] - m[2,0,16] = 0
 R5443: m[1,1,17] - m[2,0,21] = 0
 R5444: m[1,1,18] - m[2,0,2] = 0
 R5445: m[1,1,19] - m[2,0,7] = 0
 R5446: m[1,1,20] - m[2,0,20] = 0
 R5447: m[1,1,21] - m[2,0,25] = 0
 R5448: m[1,1,22] - m[2,0,6] = 0
 R5449: m[1,1,23] - m[2,0,11] = 0
 R5450: m[1,1,24] - m[2,0,24] = 0
 R5451: m[1,1,25] - m[2,0,29] = 0
 R5452: m[1,1,26] - m[2,0,10] = 0
 R5453: m[1,1,27] - m[2,0,15] = 0
 R5454: m[1,1,28] - m[2,0,28] = 0
 R5455: m[1,1,29] - m[2,0,33] = 0
 R5456: m[1,1,30] - m[2,0,14] = 0
 R5457: m[1,1,31] - m[2,0,19] = 0
 R5458: m[1,1,32] - m[2,0,32] = 0
 R5459: m[1,1,33] - m[2,0,37] = 0
 R5460: m[1,1,34] - m[2,0,18] = 0
 R5461: m[1,1,35] - m[2,0,23] = 0
 R5462: m[1,1,36] - m[2,0,36] = 0
 R5463: m[1,1,37] - m[2,0,41] = 0
 R5464: m[1,1,38] - m[2,0,22] = 0
 R5465: m[1,1,39] - m[2,0,27] = 0
 R5466: m[1,1,40] - m[2,0,40] = 0
 R5467: m[1,1,41] - m[2,0,45] = 0
 R5468: m[1,1,42] - m[2,0,26] = 0
 R5469: m[1,1,43] - m[2,0,31] = 0
 R5470: m[1,1,44] - m[2,0,44] = 0
 R5471: m[1,1,45] - m[2,0,49] = 0
 R5472: m[1,1,46] - m[2,0,30] = 0
 R5473: m[1,1,47] - m[2,0,35] = 0
 R5474: m[1,1,48] - m[2,0,48] = 0
 R5475: m[1,1,49] - m[2,0,53] = 0
 R5476: m[1,1,50] - m[2,0,34] = 0
 R5477: m[1,1,51] - m[2,0,39] = 0
 R5478: m[1,1,52] - m[2,0,52] = 0
 R5479: m[1,1,53] - m[2,0,57] = 0
 R5480: m[1,1,54] - m[2,0,38] = 0
 R5481: m[1,1,55] - m[2,0,43] = 0
 R5482: m[1,1,56] - m[2,0,56] = 0
 R5483: m[1,1,57] - m[2,0,61] = 0
 R5484: m[1,1,58] - m[2,0,42] = 0
 R5485: m[1,1,59] - m[2,0,47] = 0
 R5486: m[1,1,60] - m[2,0,60] = 0
 R5487: m[1,1,61] - m[2,0,1] = 0
 R5488: m[1,1,62] - m[2,0,46] = 0
 R5489: m[1,1,63] - m[2,0,51] = 0
 R5490: m[2,1,0] - m[3,0,0] = 0
 R5491: m[2,1,1] - m[3,0,5] = 0
 R5492: m[2,1,2] - m[3,0,50] = 0
 R5493: m[2,1,3] - m[3,0,55] = 0
 R5494: m[2,1,4] - m[3,0,4] = 0
 R5495: m[2,1,5] - m[3,0,9] = 0
 R5496: m[2,1,6] - m[3,0,54] = 0
 R5497: m[2,1,7] - m[3,0,59] = 0
 R5498: m[2,1,8] - m[3,0,8] = 0
 R5499: m[2,1,9] - m[3,0,13] = 0
 R5500: m[2,1,10] - m[3,0,58] = 0
 R5501: m[2,1,11] - m[3,0,63] = 0
 R5502: m[2,1,12] - m[3,0,12] = 0
 R5503: m[2,1,13] - m[3,0,17] = 0
 R5504: m[2,1,14] - m[3,0,62] = 0
 R5505: m[2,1,15] - m[3,0,3] = 0
 R5506: m[2,1,16] - m[3,0,16] = 0
 R5507: m[2,1,17] - m[3,0,21] = 0
 R5508: m[2,1,18] - m[3,0,2] = 0
 R5509: m[2,1,19] - m[3,0,7] = 0
 R5510: m[2,1,20] - m[3,0,20] = 0
 R5511: m[2,1,21] - m[3,0,25] = 0
 R5512: m[2,1,22] - m[3,0,6] = 0
 R5513: m[2,1,23] - m[3,0,11] = 0
 R5514: m[2,1,24] - m[3,0,24] = 0
 R5515: m[2,1,25] - m[3,0,29] = 0
 R5516: m[2,1,26] - m[3,0,10] = 0
 R5517: m[2,1,27] - m[3,0,15] = 0
 R5518: m[2,1,28] - m[3,0,28] = 0
 R5519: m[2,1,29] - m[3,0,33] = 0
 R5520: m[2,1,30] - m[3,0,14] = 0
 R5521: m[2,1,31] - m[3,0,19] = 0
 R5522: m[2,1,32] - m[3,0,32] = 0
 R5523: m[2,1,33] - m[3,0,37] = 0
 R5524: m[2,1,34] - m[3,0,18] = 0
 R5525: m[2,1,35] - m[3,0,23] = 0
 R5526: m[2,1,36] - m[3,0,36] = 0
 R5527: m[2,1,37] - m[3,0,41] = 0
 R5528: m[2,1,38] - m[3,0,22] = 0
 R5529: m[2,1,39] - m[3,0,27] = 0
 R5530: m[2,1,40] - m[3,0,40] = 0
 R5531: m[2,1,41] - m[3,0,45] = 0
 R5532: m[2,1,42] - m[3,0,26] = 0
 R5533: m[2,1,43] - m[3,0,31] = 0
 R5534: m[2,1,44] - m[3,0,44] = 0
 R5535: m[2,1,45] - m[3,0,49] = 0
 R5536: m[2,1,46] - m[3,0,30] = 0
 R5537: m[2,1,47] - m[3,0,35] = 0
 R5538: m[2,1,48] - m[3,0,48] = 0
 R5539: m[2,1,49] - m[3,0,53] = 0
 R5540: m[2,1,50] - m[3,0,34] = 0
 R5541: m[2,1,51] - m[3,0,39] = 0
 R5542: m[2,1,52] - m[3,0,52] = 0
 R5543: m[2,1,53] - m[3,0,57] = 0
 R5544: m[2,1,54] - m[3,0,38] = 0
 R5545: m[2,1,55] - m[3,0,43] = 0
 R5546: m[2,1,56] - m[3,0,56] = 0
 R5547: m[2,1,57] - m[3,0,61] = 0
 R5548: m[2,1,58] - m[3,0,42] = 0
 R5549: m[2,1,59] - m[3,0,47] = 0
 R5550: m[2,1,60] - m[3,0,60] = 0
 R5551: m[2,1,61] - m[3,0,1] = 0
 R5552: m[2,1,62] - m[3,0,46] = 0
 R5553: m[2,1,63] - m[3,0,51] = 0
 R5554: m[3,1,0] - m[4,0,0] = 0
 R5555: m[3,1,1] - m[4,0,5] = 0
 R5556: m[3,1,2] - m[4,0,50] = 0
 R5557: m[3,1,3] - m[4,0,55] = 0
 R5558: m[3,1,4] - m[4,0,4] = 0
 R5559: m[3,1,5] - m[4,0,9] = 0
 R5560: m[3,1,6] - m[4,0,54] = 0
 R5561: m[3,1,7] - m[4,0,59] = 0
 R5562: m[3,1,8] - m[4,0,8] = 0
 R5563: m[3,1,9] - m[4,0,13] = 0
 R5564: m[3,1,10] - m[4,0,58] = 0
 R5565: m[3,1,11] - m[4,0,63] = 0
 R5566: m[3,1,12] - m[4,0,12] = 0
 R5567: m[3,1,13] - m[4,0,17] = 0
 R5568: m[3,1,14] - m[4,0,62] = 0
 R5569: m[3,1,15] - m[4,0,3] = 0
 R5570: m[3,1,16] - m[4,0,16] = 0
 R5571: m[3,1,17] - m[4,0,21] = 0
 R5572: m[3,1,18] - m[4,0,2] = 0
 R5573: m[3,1,19] - m[4,0,7] = 0
 R5574: m[3,1,20] - m[4,0,20] = 0
 R5575: m[3,1,21] - m[4,0,25] = 0
 R5576: m[3,1,22] - m[4,0,6] = 0
 R5577: m[3,1,23] - m[4,0,11] = 0
 R5578: m[3,1,24] - m[4,0,24] = 0
 R5579: m[3,1,25] - m[4,0,29] = 0
 R5580: m[3,1,26] - m[4,0,10] = 0
 R5581: m[3,1,27] - m[4,0,15] = 0
 R5582: m[3,1,28] - m[4,0,28] = 0
 R5583: m[3,1,29] - m[4,0,33] = 0
 R5584: m[3,1,30] - m[4,0,14] = 0
 R5585: m[3,1,31] - m[4,0,19] = 0
 R5586: m[3,1,32] - m[4,0,32] = 0
 R5587: m[3,1,33] - m[4,0,37] = 0
 R5588: m[3,1,34] - m[4,0,18] = 0
 R5589: m[3,1,35] - m[4,0,23] = 0
 R5590: m[3,1,36] - m[4,0,36] = 0
 R5591: m[3,1,37] - m[4,0,41] = 0
 R5592: m[3,1,38] - m[4,0,22] = 0
 R5593: m[3,1,39] - m[4,0,27] = 0
 R5594: m[3,1,40] - m[4,0,40] = 0
 R5595: m[3,1,41] - m[4,0,45] = 0
 R5596: m[3,1,42] - m[4,0,26] = 0
 R5597: m[3,1,43] - m[4,0,31] = 0
 R5598: m[3,1,44] - m[4,0,44] = 0
 R5599: m[3,1,45] - m[4,0,49] = 0
 R5600: m[3,1,46] - m[4,0,30] = 0
 R5601: m[3,1,47] - m[4,0,35] = 0
 R5602: m[3,1,48] - m[4,0,48] = 0
 R5603: m[3,1,49] - m[4,0,53] = 0
 R5604: m[3,1,50] - m[4,0,34] = 0
 R5605: m[3,1,51] - m[4,0,39] = 0
 R5606: m[3,1,52] - m[4,0,52] = 0
 R5607: m[3,1,53] - m[4,0,57] = 0
 R5608: m[3,1,54] - m[4,0,38] = 0
 R5609: m[3,1,55] - m[4,0,43] = 0
 R5610: m[3,1,56] - m[4,0,56] = 0
 R5611: m[3,1,57] - m[4,0,61] = 0
 R5612: m[3,1,58] - m[4,0,42] = 0
 R5613: m[3,1,59] - m[4,0,47] = 0
 R5614: m[3,1,60] - m[4,0,60] = 0
 R5615: m[3,1,61] - m[4,0,1] = 0
 R5616: m[3,1,62] - m[4,0,46] = 0
 R5617: m[3,1,63] - m[4,0,51] = 0
 R5618: m[4,1,0] - m[5,0,0] = 0
 R5619: m[4,1,1] - m[5,0,5] = 0
 R5620: m[4,1,2] - m[5,0,50] = 0
 R5621: m[4,1,3] - m[5,0,55] = 0
 R5622: m[4,1,4] - m[5,0,4] = 0
 R5623: m[4,1,5] - m[5,0,9] = 0
 R5624: m[4,1,6] - m[5,0,54] = 0
 R5625: m[4,1,7] - m[5,0,59] = 0
 R5626: m[4,1,8] - m[5,0,8] = 0
 R5627: m[4,1,9] - m[5,0,13] = 0
 R5628: m[4,1,10] - m[5,0,58] = 0
 R5629: m[4,1,11] - m[5,0,63] = 0
 R5630: m[4,1,12] - m[5,0,12] = 0
 R5631: m[4,1,13] - m[5,0,17] = 0
 R5632: m[4,1,14] - m[5,0,62] = 0
 R5633: m[4,1,15] - m[5,0,3] = 0
 R5634: m[4,1,16] - m[5,0,16] = 0
 R5635: m[4,1,17] - m[5,0,21] = 0
 R5636: m[4,1,18] - m[5,0,2] = 0
 R5637: m[4,1,19] - m[5,0,7] = 0
 R5638: m[4,1,20] - m[5,0,20] = 0
 R5639: m[4,1,21] - m[5,0,25] = 0
 R5640: m[4,1,22] - m[5,0,6] = 0
 R5641: m[4,1,23] - m[5,0,11] = 0
 R5642: m[4,1,24] - m[5,0,24] = 0
 R5643: m[4,1,25] - m[5,0,29] = 0
 R5644: m[4,1,26] - m[5,0,10] = 0
 R5645: m[4,1,27] - m[5,0,15] = 0
 R5646: m[4,1,28] - m[5,0,28] = 0
 R5647: m[4,1,29] - m[5,0,33] = 0
 R5648: m[4,1,30] - m[5,0,14] = 0
 R5649: m[4,1,31] - m[5,0,19] = 0
 R5650: m[4,1,32] - m[5,0,32] = 0
 R5651: m[4,1,33] - m[5,0,37] = 0
 R5652: m[4,1,34] - m[5,0,18] = 0
 R5653: m[4,1,35] - m[5,0,23] = 0
 R5654: m[4,1,36] - m[5,0,36] = 0
 R5655: m[4,1,37] - m[5,0,41] = 0
 R5656: m[4,1,38] - m[5,0,22] = 0
 R5657: m[4,1,39] - m[5,0,27] = 0
 R5658: m[4,1,40] - m[5,0,40] = 0
 R5659: m[4,1,41] - m[5,0,45] = 0
 R5660: m[4,1,42] - m[5,0,26] = 0
 R5661: m[4,1,43] - m[5,0,31] = 0
 R5662: m[4,1,44] - m[5,0,44] = 0
 R5663: m[4,1,45] - m[5,0,49] = 0
 R5664: m[4,1,46] - m[5,0,30] = 0
 R5665: m[4,1,47] - m[5,0,35] = 0
 R5666: m[4,1,48] - m[5,0,48] = 0
 R5667: m[4,1,49] - m[5,0,53] = 0
 R5668: m[4,1,50] - m[5,0,34] = 0
 R5669: m[4,1,51] - m[5,0,39] = 0
 R5670: m[4,1,52] - m[5,0,52] = 0
 R5671: m[4,1,53] - m[5,0,57] = 0
 R5672: m[4,1,54] - m[5,0,38] = 0
 R5673: m[4,1,55] - m[5,0,43] = 0
 R5674: m[4,1,56] - m[5,0,56] = 0
 R5675: m[4,1,57] - m[5,0,61] = 0
 R5676: m[4,1,58] - m[5,0,42] = 0
 R5677: m[4,1,59] - m[5,0,47] = 0
 R5678: m[4,1,60] - m[5,0,60] = 0
 R5679: m[4,1,61] - m[5,0,1] = 0
 R5680: m[4,1,62] - m[5,0,46] = 0
 R5681: m[4,1,63] - m[5,0,51] = 0
 R5682: m[5,1,0] - m[6,0,0] = 0
 R5683: m[5,1,1] - m[6,0,5] = 0
 R5684: m[5,1,2] - m[6,0,50] = 0
 R5685: m[5,1,3] - m[6,0,55] = 0
 R5686: m[5,1,4] - m[6,0,4] = 0
 R5687: m[5,1,5] - m[6,0,9] = 0
 R5688: m[5,1,6] - m[6,0,54] = 0
 R5689: m[5,1,7] - m[6,0,59] = 0
 R5690: m[5,1,8] - m[6,0,8] = 0
 R5691: m[5,1,9] - m[6,0,13] = 0
 R5692: m[5,1,10] - m[6,0,58] = 0
 R5693: m[5,1,11] - m[6,0,63] = 0
 R5694: m[5,1,12] - m[6,0,12] = 0
 R5695: m[5,1,13] - m[6,0,17] = 0
 R5696: m[5,1,14] - m[6,0,62] = 0
 R5697: m[5,1,15] - m[6,0,3] = 0
 R5698: m[5,1,16] - m[6,0,16] = 0
 R5699: m[5,1,17] - m[6,0,21] = 0
 R5700: m[5,1,18] - m[6,0,2] = 0
 R5701: m[5,1,19] - m[6,0,7] = 0
 R5702: m[5,1,20] - m[6,0,20] = 0
 R5703: m[5,1,21] - m[6,0,25] = 0
 R5704: m[5,1,22] - m[6,0,6] = 0
 R5705: m[5,1,23] - m[6,0,11] = 0
 R5706: m[5,1,24] - m[6,0,24] = 0
 R5707: m[5,1,25] - m[6,0,29] = 0
 R5708: m[5,1,26] - m[6,0,10] = 0
 R5709: m[5,1,27] - m[6,0,15] = 0
 R5710: m[5,1,28] - m[6,0,28] = 0
 R5711: m[5,1,29] - m[6,0,33] = 0
 R5712: m[5,1,30] - m[6,0,14] = 0
 R5713: m[5,1,31] - m[6,0,19] = 0
 R5714: m[5,1,32] - m[6,0,32] = 0
 R5715: m[5,1,33] - m[6,0,37] = 0
 R5716: m[5,1,34] - m[6,0,18] = 0
 R5717: m[5,1,35] - m[6,0,23] = 0
 R5718: m[5,1,36] - m[6,0,36] = 0
 R5719: m[5,1,37] - m[6,0,41] = 0
 R5720: m[5,1,38] - m[6,0,22] = 0
 R5721: m[5,1,39] - m[6,0,27] = 0
 R5722: m[5,1,40] - m[6,0,40] = 0
 R5723: m[5,1,41] - m[6,0,45] = 0
 R5724: m[5,1,42] - m[6,0,26] = 0
 R5725: m[5,1,43] - m[6,0,31] = 0
 R5726: m[5,1,44] - m[6,0,44] = 0
 R5727: m[5,1,45] - m[6,0,49] = 0
 R5728: m[5,1,46] - m[6,0,30] = 0
 R5729: m[5,1,47] - m[6,0,35] = 0
 R5730: m[5,1,48] - m[6,0,48] = 0
 R5731: m[5,1,49] - m[6,0,53] = 0
 R5732: m[5,1,50] - m[6,0,34] = 0
 R5733: m[5,1,51] - m[6,0,39] = 0
 R5734: m[5,1,52] - m[6,0,52] = 0
 R5735: m[5,1,53] - m[6,0,57] = 0
 R5736: m[5,1,54] - m[6,0,38] = 0
 R5737: m[5,1,55] - m[6,0,43] = 0
 R5738: m[5,1,56] - m[6,0,56] = 0
 R5739: m[5,1,57] - m[6,0,61] = 0
 R5740: m[5,1,58] - m[6,0,42] = 0
 R5741: m[5,1,59] - m[6,0,47] = 0
 R5742: m[5,1,60] - m[6,0,60] = 0
 R5743: m[5,1,61] - m[6,0,1] = 0
 R5744: m[5,1,62] - m[6,0,46] = 0
 R5745: m[5,1,63] - m[6,0,51] = 0
 R5746: m[6,1,0] - m[7,0,0] = 0
 R5747: m[6,1,1] - m[7,0,5] = 0
 R5748: m[6,1,2] - m[7,0,50] = 0
 R5749: m[6,1,3] - m[7,0,55] = 0
 R5750: m[6,1,4] - m[7,0,4] = 0
 R5751: m[6,1,5] - m[7,0,9] = 0
 R5752: m[6,1,6] - m[7,0,54] = 0
 R5753: m[6,1,7] - m[7,0,59] = 0
 R5754: m[6,1,8] - m[7,0,8] = 0
 R5755: m[6,1,9] - m[7,0,13] = 0
 R5756: m[6,1,10] - m[7,0,58] = 0
 R5757: m[6,1,11] - m[7,0,63] = 0
 R5758: m[6,1,12] - m[7,0,12] = 0
 R5759: m[6,1,13] - m[7,0,17] = 0
 R5760: m[6,1,14] - m[7,0,62] = 0
 R5761: m[6,1,15] - m[7,0,3] = 0
 R5762: m[6,1,16] - m[7,0,16] = 0
 R5763: m[6,1,17] - m[7,0,21] = 0
 R5764: m[6,1,18] - m[7,0,2] = 0
 R5765: m[6,1,19] - m[7,0,7] = 0
 R5766: m[6,1,20] - m[7,0,20] = 0
 R5767: m[6,1,21] - m[7,0,25] = 0
 R5768: m[6,1,22] - m[7,0,6] = 0
 R5769: m[6,1,23] - m[7,0,11] = 0
 R5770: m[6,1,24] - m[7,0,24] = 0
 R5771: m[6,1,25] - m[7,0,29] = 0
 R5772: m[6,1,26] - m[7,0,10] = 0
 R5773: m[6,1,27] - m[7,0,15] = 0
 R5774: m[6,1,28] - m[7,0,28] = 0
 R5775: m[6,1,29] - m[7,0,33] = 0
 R5776: m[6,1,30] - m[7,0,14] = 0
 R5777: m[6,1,31] - m[7,0,19] = 0
 R5778: m[6,1,32] - m[7,0,32] = 0
 R5779: m[6,1,33] - m[7,0,37] = 0
 R5780: m[6,1,34] - m[7,0,18] = 0
 R5781: m[6,1,35] - m[7,0,23] = 0
 R5782: m[6,1,36] - m[7,0,36] = 0
 R5783: m[6,1,37] - m[7,0,41] = 0
 R5784: m[6,1,38] - m[7,0,22] = 0
 R5785: m[6,1,39] - m[7,0,27] = 0
 R5786: m[6,1,40] - m[7,0,40] = 0
 R5787: m[6,1,41] - m[7,0,45] = 0
 R5788: m[6,1,42] - m[7,0,26] = 0
 R5789: m[6,1,43] - m[7,0,31] = 0
 R5790: m[6,1,44] - m[7,0,44] = 0
 R5791: m[6,1,45] - m[7,0,49] = 0
 R5792: m[6,1,46] - m[7,0,30] = 0
 R5793: m[6,1,47] - m[7,0,35] = 0
 R5794: m[6,1,48] - m[7,0,48] = 0
 R5795: m[6,1,49] - m[7,0,53] = 0
 R5796: m[6,1,50] - m[7,0,34] = 0
 R5797: m[6,1,51] - m[7,0,39] = 0
 R5798: m[6,1,52] - m[7,0,52] = 0
 R5799: m[6,1,53] - m[7,0,57] = 0
 R5800: m[6,1,54] - m[7,0,38] = 0
 R5801: m[6,1,55] - m[7,0,43] = 0
 R5802: m[6,1,56] - m[7,0,56] = 0
 R5803: m[6,1,57] - m[7,0,61] = 0
 R5804: m[6,1,58] - m[7,0,42] = 0
 R5805: m[6,1,59] - m[7,0,47] = 0
 R5806: m[6,1,60] - m[7,0,60] = 0
 R5807: m[6,1,61] - m[7,0,1] = 0
 R5808: m[6,1,62] - m[7,0,46] = 0
 R5809: m[6,1,63] - m[7,0,51] = 0
 R5810: m[7,1,0] - m[8,0,0] = 0
 R5811: m[7,1,1] - m[8,0,5] = 0
 R5812: m[7,1,2] - m[8,0,50] = 0
 R5813: m[7,1,3] - m[8,0,55] = 0
 R5814: m[7,1,4] - m[8,0,4] = 0
 R5815: m[7,1,5] - m[8,0,9] = 0
 R5816: m[7,1,6] - m[8,0,54] = 0
 R5817: m[7,1,7] - m[8,0,59] = 0
 R5818: m[7,1,8] - m[8,0,8] = 0
 R5819: m[7,1,9] - m[8,0,13] = 0
 R5820: m[7,1,10] - m[8,0,58] = 0
 R5821: m[7,1,11] - m[8,0,63] = 0
 R5822: m[7,1,12] - m[8,0,12] = 0
 R5823: m[7,1,13] - m[8,0,17] = 0
 R5824: m[7,1,14] - m[8,0,62] = 0
 R5825: m[7,1,15] - m[8,0,3] = 0
 R5826: m[7,1,16] - m[8,0,16] = 0
 R5827: m[7,1,17] - m[8,0,21] = 0
 R5828: m[7,1,18] - m[8,0,2] = 0
 R5829: m[7,1,19] - m[8,0,7] = 0
 R5830: m[7,1,20] - m[8,0,20] = 0
 R5831: m[7,1,21] - m[8,0,25] = 0
 R5832: m[7,1,22] - m[8,0,6] = 0
 R5833: m[7,1,23] - m[8,0,11] = 0
 R5834: m[7,1,24] - m[8,0,24] = 0
 R5835: m[7,1,25] - m[8,0,29] = 0
 R5836: m[7,1,26] - m[8,0,10] = 0
 R5837: m[7,1,27] - m[8,0,15] = 0
 R5838: m[7,1,28] - m[8,0,28] = 0
 R5839: m[7,1,29] - m[8,0,33] = 0
 R5840: m[7,1,30] - m[8,0,14] = 0
 R5841: m[7,1,31] - m[8,0,19] = 0
 R5842: m[7,1,32] - m[8,0,32] = 0
 R5843: m[7,1,33] - m[8,0,37] = 0
 R5844: m[7,1,34] - m[8,0,18] = 0
 R5845: m[7,1,35] - m[8,0,23] = 0
 R5846: m[7,1,36] - m[8,0,36] = 0
 R5847: m[7,1,37] - m[8,0,41] = 0
 R5848: m[7,1,38] - m[8,0,22] = 0
 R5849: m[7,1,39] - m[8,0,27] = 0
 R5850: m[7,1,40] - m[8,0,40] = 0
 R5851: m[7,1,41] - m[8,0,45] = 0
 R5852: m[7,1,42] - m[8,0,26] = 0
 R5853: m[7,1,43] - m[8,0,31] = 0
 R5854: m[7,1,44] - m[8,0,44] = 0
 R5855: m[7,1,45] - m[8,0,49] = 0
 R5856: m[7,1,46] - m[8,0,30] = 0
 R5857: m[7,1,47] - m[8,0,35] = 0
 R5858: m[7,1,48] - m[8,0,48] = 0
 R5859: m[7,1,49] - m[8,0,53] = 0
 R5860: m[7,1,50] - m[8,0,34] = 0
 R5861: m[7,1,51] - m[8,0,39] = 0
 R5862: m[7,1,52] - m[8,0,52] = 0
 R5863: m[7,1,53] - m[8,0,57] = 0
 R5864: m[7,1,54] - m[8,0,38] = 0
 R5865: m[7,1,55] - m[8,0,43] = 0
 R5866: m[7,1,56] - m[8,0,56] = 0
 R5867: m[7,1,57] - m[8,0,61] = 0
 R5868: m[7,1,58] - m[8,0,42] = 0
 R5869: m[7,1,59] - m[8,0,47] = 0
 R5870: m[7,1,60] - m[8,0,60] = 0
 R5871: m[7,1,61] - m[8,0,1] = 0
 R5872: m[7,1,62] - m[8,0,46] = 0
 R5873: m[7,1,63] - m[8,0,51] = 0
 R5874: m[8,1,0] - m[9,0,0] = 0
 R5875: m[8,1,1] - m[9,0,5] = 0
 R5876: m[8,1,2] - m[9,0,50] = 0
 R5877: m[8,1,3] - m[9,0,55] = 0
 R5878: m[8,1,4] - m[9,0,4] = 0
 R5879: m[8,1,5] - m[9,0,9] = 0
 R5880: m[8,1,6] - m[9,0,54] = 0
 R5881: m[8,1,7] - m[9,0,59] = 0
 R5882: m[8,1,8] - m[9,0,8] = 0
 R5883: m[8,1,9] - m[9,0,13] = 0
 R5884: m[8,1,10] - m[9,0,58] = 0
 R5885: m[8,1,11] - m[9,0,63] = 0
 R5886: m[8,1,12] - m[9,0,12] = 0
 R5887: m[8,1,13] - m[9,0,17] = 0
 R5888: m[8,1,14] - m[9,0,62] = 0
 R5889: m[8,1,15] - m[9,0,3] = 0
 R5890: m[8,1,16] - m[9,0,16] = 0
 R5891: m[8,1,17] - m[9,0,21] = 0
 R5892: m[8,1,18] - m[9,0,2] = 0
 R5893: m[8,1,19] - m[9,0,7] = 0
 R5894: m[8,1,20] - m[9,0,20] = 0
 R5895: m[8,1,21] - m[9,0,25] = 0
 R5896: m[8,1,22] - m[9,0,6] = 0
 R5897: m[8,1,23] - m[9,0,11] = 0
 R5898: m[8,1,24] - m[9,0,24] = 0
 R5899: m[8,1,25] - m[9,0,29] = 0
 R5900: m[8,1,26] - m[9,0,10] = 0
 R5901: m[8,1,27] - m[9,0,15] = 0
 R5902: m[8,1,28] - m[9,0,28] = 0
 R5903: m[8,1,29] - m[9,0,33] = 0
 R5904: m[8,1,30] - m[9,0,14] = 0
 R5905: m[8,1,31] - m[9,0,19] = 0
 R5906: m[8,1,32] - m[9,0,32] = 0
 R5907: m[8,1,33] - m[9,0,37] = 0
 R5908: m[8,1,34] - m[9,0,18] = 0
 R5909: m[8,1,35] - m[9,0,23] = 0
 R5910: m[8,1,36] - m[9,0,36] = 0
 R5911: m[8,1,37] - m[9,0,41] = 0
 R5912: m[8,1,38] - m[9,0,22] = 0
 R5913: m[8,1,39] - m[9,0,27] = 0
 R5914: m[8,1,40] - m[9,0,40] = 0
 R5915: m[8,1,41] - m[9,0,45] = 0
 R5916: m[8,1,42] - m[9,0,26] = 0
 R5917: m[8,1,43] - m[9,0,31] = 0
 R5918: m[8,1,44] - m[9,0,44] = 0
 R5919: m[8,1,45] - m[9,0,49] = 0
 R5920: m[8,1,46] - m[9,0,30] = 0
 R5921: m[8,1,47] - m[9,0,35] = 0
 R5922: m[8,1,48] - m[9,0,48] = 0
 R5923: m[8,1,49] - m[9,0,53] = 0
 R5924: m[8,1,50] - m[9,0,34] = 0
 R5925: m[8,1,51] - m[9,0,39] = 0
 R5926: m[8,1,52] - m[9,0,52] = 0
 R5927: m[8,1,53] - m[9,0,57] = 0
 R5928: m[8,1,54] - m[9,0,38] = 0
 R5929: m[8,1,55] - m[9,0,43] = 0
 R5930: m[8,1,56] - m[9,0,56] = 0
 R5931: m[8,1,57] - m[9,0,61] = 0
 R5932: m[8,1,58] - m[9,0,42] = 0
 R5933: m[8,1,59] - m[9,0,47] = 0
 R5934: m[8,1,60] - m[9,0,60] = 0
 R5935: m[8,1,61] - m[9,0,1] = 0
 R5936: m[8,1,62] - m[9,0,46] = 0
 R5937: m[8,1,63] - m[9,0,51] = 0
 R5938: m[9,1,0] - m[10,0,0] = 0
 R5939: m[9,1,1] - m[10,0,5] = 0
 R5940: m[9,1,2] - m[10,0,50] = 0
 R5941: m[9,1,3] - m[10,0,55] = 0
 R5942: m[9,1,4] - m[10,0,4] = 0
 R5943: m[9,1,5] - m[10,0,9] = 0
 R5944: m[9,1,6] - m[10,0,54] = 0
 R5945: m[9,1,7] - m[10,0,59] = 0
 R5946: m[9,1,8] - m[10,0,8] = 0
 R5947: m[9,1,9] - m[10,0,13] = 0
 R5948: m[9,1,10] - m[10,0,58] = 0
 R5949: m[9,1,11] - m[10,0,63] = 0
 R5950: m[9,1,12] - m[10,0,12] = 0
 R5951: m[9,1,13] - m[10,0,17] = 0
 R5952: m[9,1,14] - m[10,0,62] = 0
 R5953: m[9,1,15] - m[10,0,3] = 0
 R5954: m[9,1,16] - m[10,0,16] = 0
 R5955: m[9,1,17] - m[10,0,21] = 0
 R5956: m[9,1,18] - m[10,0,2] = 0
 R5957: m[9,1,19] - m[10,0,7] = 0
 R5958: m[9,1,20] - m[10,0,20] = 0
 R5959: m[9,1,21] - m[10,0,25] = 0
 R5960: m[9,1,22] - m[10,0,6] = 0
 R5961: m[9,1,23] - m[10,0,11] = 0
 R5962: m[9,1,24] - m[10,0,24] = 0
 R5963: m[9,1,25] - m[10,0,29] = 0
 R5964: m[9,1,26] - m[10,0,10] = 0
 R5965: m[9,1,27] - m[10,0,15] = 0
 R5966: m[9,1,28] - m[10,0,28] = 0
 R5967: m[9,1,29] - m[10,0,33] = 0
 R5968: m[9,1,30] - m[10,0,14] = 0
 R5969: m[9,1,31] - m[10,0,19] = 0
 R5970: m[9,1,32] - m[10,0,32] = 0
 R5971: m[9,1,33] - m[10,0,37] = 0
 R5972: m[9,1,34] - m[10,0,18] = 0
 R5973: m[9,1,35] - m[10,0,23] = 0
 R5974: m[9,1,36] - m[10,0,36] = 0
 R5975: m[9,1,37] - m[10,0,41] = 0
 R5976: m[9,1,38] - m[10,0,22] = 0
 R5977: m[9,1,39] - m[10,0,27] = 0
 R5978: m[9,1,40] - m[10,0,40] = 0
 R5979: m[9,1,41] - m[10,0,45] = 0
 R5980: m[9,1,42] - m[10,0,26] = 0
 R5981: m[9,1,43] - m[10,0,31] = 0
 R5982: m[9,1,44] - m[10,0,44] = 0
 R5983: m[9,1,45] - m[10,0,49] = 0
 R5984: m[9,1,46] - m[10,0,30] = 0
 R5985: m[9,1,47] - m[10,0,35] = 0
 R5986: m[9,1,48] - m[10,0,48] = 0
 R5987: m[9,1,49] - m[10,0,53] = 0
 R5988: m[9,1,50] - m[10,0,34] = 0
 R5989: m[9,1,51] - m[10,0,39] = 0
 R5990: m[9,1,52] - m[10,0,52] = 0
 R5991: m[9,1,53] - m[10,0,57] = 0
 R5992: m[9,1,54] - m[10,0,38] = 0
 R5993: m[9,1,55] - m[10,0,43] = 0
 R5994: m[9,1,56] - m[10,0,56] = 0
 R5995: m[9,1,57] - m[10,0,61] = 0
 R5996: m[9,1,58] - m[10,0,42] = 0
 R5997: m[9,1,59] - m[10,0,47] = 0
 R5998: m[9,1,60] - m[10,0,60] = 0
 R5999: m[9,1,61] - m[10,0,1] = 0
 R6000: m[9,1,62] - m[10,0,46] = 0
 R6001: m[9,1,63] - m[10,0,51] = 0
 R6002: m[10,1,0] - m[11,0,0] = 0
 R6003: m[10,1,1] - m[11,0,5] = 0
 R6004: m[10,1,2] - m[11,0,50] = 0
 R6005: m[10,1,3] - m[11,0,55] = 0
 R6006: m[10,1,4] - m[11,0,4] = 0
 R6007: m[10,1,5] - m[11,0,9] = 0
 R6008: m[10,1,6] - m[11,0,54] = 0
 R6009: m[10,1,7] - m[11,0,59] = 0
 R6010: m[10,1,8] - m[11,0,8] = 0
 R6011: m[10,1,9] - m[11,0,13] = 0
 R6012: m[10,1,10] - m[11,0,58] = 0
 R6013: m[10,1,11] - m[11,0,63] = 0
 R6014: m[10,1,12] - m[11,0,12] = 0
 R6015: m[10,1,13] - m[11,0,17] = 0
 R6016: m[10,1,14] - m[11,0,62] = 0
 R6017: m[10,1,15] - m[11,0,3] = 0
 R6018: m[10,1,16] - m[11,0,16] = 0
 R6019: m[10,1,17] - m[11,0,21] = 0
 R6020: m[10,1,18] - m[11,0,2] = 0
 R6021: m[10,1,19] - m[11,0,7] = 0
 R6022: m[10,1,20] - m[11,0,20] = 0
 R6023: m[10,1,21] - m[11,0,25] = 0
 R6024: m[10,1,22] - m[11,0,6] = 0
 R6025: m[10,1,23] - m[11,0,11] = 0
 R6026: m[10,1,24] - m[11,0,24] = 0
 R6027: m[10,1,25] - m[11,0,29] = 0
 R6028: m[10,1,26] - m[11,0,10] = 0
 R6029: m[10,1,27] - m[11,0,15] = 0
 R6030: m[10,1,28] - m[11,0,28] = 0
 R6031: m[10,1,29] - m[11,0,33] = 0
 R6032: m[10,1,30] - m[11,0,14] = 0
 R6033: m[10,1,31] - m[11,0,19] = 0
 R6034: m[10,1,32] - m[11,0,32] = 0
 R6035: m[10,1,33] - m[11,0,37] = 0
 R6036: m[10,1,34] - m[11,0,18] = 0
 R6037: m[10,1,35] - m[11,0,23] = 0
 R6038: m[10,1,36] - m[11,0,36] = 0
 R6039: m[10,1,37] - m[11,0,41] = 0
 R6040: m[10,1,38] - m[11,0,22] = 0
 R6041: m[10,1,39] - m[11,0,27] = 0
 R6042: m[10,1,40] - m[11,0,40] = 0
 R6043: m[10,1,41] - m[11,0,45] = 0
 R6044: m[10,1,42] - m[11,0,26] = 0
 R6045: m[10,1,43] - m[11,0,31] = 0
 R6046: m[10,1,44] - m[11,0,44] = 0
 R6047: m[10,1,45] - m[11,0,49] = 0
 R6048: m[10,1,46] - m[11,0,30] = 0
 R6049: m[10,1,47] - m[11,0,35] = 0
 R6050: m[10,1,48] - m[11,0,48] = 0
 R6051: m[10,1,49] - m[11,0,53] = 0
 R6052: m[10,1,50] - m[11,0,34] = 0
 R6053: m[10,1,51] - m[11,0,39] = 0
 R6054: m[10,1,52] - m[11,0,52] = 0
 R6055: m[10,1,53] - m[11,0,57] = 0
 R6056: m[10,1,54] - m[11,0,38] = 0
 R6057: m[10,1,55] - m[11,0,43] = 0
 R6058: m[10,1,56] - m[11,0,56] = 0
 R6059: m[10,1,57] - m[11,0,61] = 0
 R6060: m[10,1,58] - m[11,0,42] = 0
 R6061: m[10,1,59] - m[11,0,47] = 0
 R6062: m[10,1,60] - m[11,0,60] = 0
 R6063: m[10,1,61] - m[11,0,1] = 0
 R6064: m[10,1,62] - m[11,0,46] = 0
 R6065: m[10,1,63] - m[11,0,51] = 0
 R6066: m[11,1,0] - m[12,0,0] = 0
 R6067: m[11,1,1] - m[12,0,5] = 0
 R6068: m[11,1,2] - m[12,0,50] = 0
 R6069: m[11,1,3] - m[12,0,55] = 0
 R6070: m[11,1,4] - m[12,0,4] = 0
 R6071: m[11,1,5] - m[12,0,9] = 0
 R6072: m[11,1,6] - m[12,0,54] = 0
 R6073: m[11,1,7] - m[12,0,59] = 0
 R6074: m[11,1,8] - m[12,0,8] = 0
 R6075: m[11,1,9] - m[12,0,13] = 0
 R6076: m[11,1,10] - m[12,0,58] = 0
 R6077: m[11,1,11] - m[12,0,63] = 0
 R6078: m[11,1,12] - m[12,0,12] = 0
 R6079: m[11,1,13] - m[12,0,17] = 0
 R6080: m[11,1,14] - m[12,0,62] = 0
 R6081: m[11,1,15] - m[12,0,3] = 0
 R6082: m[11,1,16] - m[12,0,16] = 0
 R6083: m[11,1,17] - m[12,0,21] = 0
 R6084: m[11,1,18] - m[12,0,2] = 0
 R6085: m[11,1,19] - m[12,0,7] = 0
 R6086: m[11,1,20] - m[12,0,20] = 0
 R6087: m[11,1,21] - m[12,0,25] = 0
 R6088: m[11,1,22] - m[12,0,6] = 0
 R6089: m[11,1,23] - m[12,0,11] = 0
 R6090: m[11,1,24] - m[12,0,24] = 0
 R6091: m[11,1,25] - m[12,0,29] = 0
 R6092: m[11,1,26] - m[12,0,10] = 0
 R6093: m[11,1,27] - m[12,0,15] = 0
 R6094: m[11,1,28] - m[12,0,28] = 0
 R6095: m[11,1,29] - m[12,0,33] = 0
 R6096: m[11,1,30] - m[12,0,14] = 0
 R6097: m[11,1,31] - m[12,0,19] = 0
 R6098: m[11,1,32] - m[12,0,32] = 0
 R6099: m[11,1,33] - m[12,0,37] = 0
 R6100: m[11,1,34] - m[12,0,18] = 0
 R6101: m[11,1,35] - m[12,0,23] = 0
 R6102: m[11,1,36] - m[12,0,36] = 0
 R6103: m[11,1,37] - m[12,0,41] = 0
 R6104: m[11,1,38] - m[12,0,22] = 0
 R6105: m[11,1,39] - m[12,0,27] = 0
 R6106: m[11,1,40] - m[12,0,40] = 0
 R6107: m[11,1,41] - m[12,0,45] = 0
 R6108: m[11,1,42] - m[12,0,26] = 0
 R6109: m[11,1,43] - m[12,0,31] = 0
 R6110: m[11,1,44] - m[12,0,44] = 0
 R6111: m[11,1,45] - m[12,0,49] = 0
 R6112: m[11,1,46] - m[12,0,30] = 0
 R6113: m[11,1,47] - m[12,0,35] = 0
 R6114: m[11,1,48] - m[12,0,48] = 0
 R6115: m[11,1,49] - m[12,0,53] = 0
 R6116: m[11,1,50] - m[12,0,34] = 0
 R6117: m[11,1,51] - m[12,0,39] = 0
 R6118: m[11,1,52] - m[12,0,52] = 0
 R6119: m[11,1,53] - m[12,0,57] = 0
 R6120: m[11,1,54] - m[12,0,38] = 0
 R6121: m[11,1,55] - m[12,0,43] = 0
 R6122: m[11,1,56] - m[12,0,56] = 0
 R6123: m[11,1,57] - m[12,0,61] = 0
 R6124: m[11,1,58] - m[12,0,42] = 0
 R6125: m[11,1,59] - m[12,0,47] = 0
 R6126: m[11,1,60] - m[12,0,60] = 0
 R6127: m[11,1,61] - m[12,0,1] = 0
 R6128: m[11,1,62] - m[12,0,46] = 0
 R6129: m[11,1,63] - m[12,0,51] = 0
 R6130: m[12,1,0] - m[13,0,0] = 0
 R6131: m[12,1,1] - m[13,0,5] = 0
 R6132: m[12,1,2] - m[13,0,50] = 0
 R6133: m[12,1,3] - m[13,0,55] = 0
 R6134: m[12,1,4] - m[13,0,4] = 0
 R6135: m[12,1,5] - m[13,0,9] = 0
 R6136: m[12,1,6] - m[13,0,54] = 0
 R6137: m[12,1,7] - m[13,0,59] = 0
 R6138: m[12,1,8] - m[13,0,8] = 0
 R6139: m[12,1,9] - m[13,0,13] = 0
 R6140: m[12,1,10] - m[13,0,58] = 0
 R6141: m[12,1,11] - m[13,0,63] = 0
 R6142: m[12,1,12] - m[13,0,12] = 0
 R6143: m[12,1,13] - m[13,0,17] = 0
 R6144: m[12,1,14] - m[13,0,62] = 0
 R6145: m[12,1,15] - m[13,0,3] = 0
 R6146: m[12,1,16] - m[13,0,16] = 0
 R6147: m[12,1,17] - m[13,0,21] = 0
 R6148: m[12,1,18] - m[13,0,2] = 0
 R6149: m[12,1,19] - m[13,0,7] = 0
 R6150: m[12,1,20] - m[13,0,20] = 0
 R6151: m[12,1,21] - m[13,0,25] = 0
 R6152: m[12,1,22] - m[13,0,6] = 0
 R6153: m[12,1,23] - m[13,0,11] = 0
 R6154: m[12,1,24] - m[13,0,24] = 0
 R6155: m[12,1,25] - m[13,0,29] = 0
 R6156: m[12,1,26] - m[13,0,10] = 0
 R6157: m[12,1,27] - m[13,0,15] = 0
 R6158: m[12,1,28] - m[13,0,28] = 0
 R6159: m[12,1,29] - m[13,0,33] = 0
 R6160: m[12,1,30] - m[13,0,14] = 0
 R6161: m[12,1,31] - m[13,0,19] = 0
 R6162: m[12,1,32] - m[13,0,32] = 0
 R6163: m[12,1,33] - m[13,0,37] = 0
 R6164: m[12,1,34] - m[13,0,18] = 0
 R6165: m[12,1,35] - m[13,0,23] = 0
 R6166: m[12,1,36] - m[13,0,36] = 0
 R6167: m[12,1,37] - m[13,0,41] = 0
 R6168: m[12,1,38] - m[13,0,22] = 0
 R6169: m[12,1,39] - m[13,0,27] = 0
 R6170: m[12,1,40] - m[13,0,40] = 0
 R6171: m[12,1,41] - m[13,0,45] = 0
 R6172: m[12,1,42] - m[13,0,26] = 0
 R6173: m[12,1,43] - m[13,0,31] = 0
 R6174: m[12,1,44] - m[13,0,44] = 0
 R6175: m[12,1,45] - m[13,0,49] = 0
 R6176: m[12,1,46] - m[13,0,30] = 0
 R6177: m[12,1,47] - m[13,0,35] = 0
 R6178: m[12,1,48] - m[13,0,48] = 0
 R6179: m[12,1,49] - m[13,0,53] = 0
 R6180: m[12,1,50] - m[13,0,34] = 0
 R6181: m[12,1,51] - m[13,0,39] = 0
 R6182: m[12,1,52] - m[13,0,52] = 0
 R6183: m[12,1,53] - m[13,0,57] = 0
 R6184: m[12,1,54] - m[13,0,38] = 0
 R6185: m[12,1,55] - m[13,0,43] = 0
 R6186: m[12,1,56] - m[13,0,56] = 0
 R6187: m[12,1,57] - m[13,0,61] = 0
 R6188: m[12,1,58] - m[13,0,42] = 0
 R6189: m[12,1,59] - m[13,0,47] = 0
 R6190: m[12,1,60] - m[13,0,60] = 0
 R6191: m[12,1,61] - m[13,0,1] = 0
 R6192: m[12,1,62] - m[13,0,46] = 0
 R6193: m[12,1,63] - m[13,0,51] = 0
Bounds
Binaries
 m[0,0,0] m[0,0,1] m[0,0,2] m[0,0,3] m[0,0,4] m[0,0,5] m[0,0,6] m[0,0,7]
 m[0,0,8] m[0,0,9] m[0,0,10] m[0,0,11] m[0,0,12] m[0,0,13] m[0,0,14]
 m[0,0,15] m[0,0,16] m[0,0,17] m[0,0,18] m[0,0,19] m[0,0,20] m[0,0,21]
 m[0,0,22] m[0,0,23] m[0,0,24] m[0,0,25] m[0,0,26] m[0,0,27] m[0,0,28]
 m[0,0,29] m[0,0,30] m[0,0,31] m[0,0,32] m[0,0,33] m[0,0,34] m[0,0,35]
 m[0,0,36] m[0,0,37] m[0,0,38] m[0,0,39] m[0,0,40] m[0,0,41] m[0,0,42]
 m[0,0,43] m[0,0,44] m[0,0,45] m[0,0,46] m[0,0,47] m[0,0,48] m[0,0,49]
 m[0,0,50] m[0,0,51] m[0,0,52] m[0,0,53] m[0,0,54] m[0,0,55] m[0,0,56]
 m[0,0,57] m[0,0,58] m[0,0,59] m[0,0,60] m[0,0,61] m[0,0,62] m[0,0,63]
 m[0,1,0] m[0,1,1] m[0,1,2] m[0,1,3] m[0,1,4] m[0,1,5] m[0,1,6] m[0,1,7]
 m[0,1,8] m[0,1,9] m[0,1,10] m[0,1,11] m[0,1,12] m[0,1,13] m[0,1,14]
 m[0,1,15] m[0,1,16] m[0,1,17] m[0,1,18] m[0,1,19] m[0,1,20] m[0,1,21]
 m[0,1,22] m[0,1,23] m[0,1,24] m[0,1,25] m[0,1,26] m[0,1,27] m[0,1,28]
 m[0,1,29] m[0,1,30] m[0,1,31] m[0,1,32] m[0,1,33] m[0,1,34] m[0,1,35]
 m[0,1,36] m[0,1,37] m[0,1,38] m[0,1,39] m[0,1,40] m[0,1,41] m[0,1,42]
 m[0,1,43] m[0,1,44] m[0,1,45] m[0,1,46] m[0,1,47] m[0,1,48] m[0,1,49]
 m[0,1,50] m[0,1,51] m[0,1,52] m[0,1,53] m[0,1,54] m[0,1,55] m[0,1,56]
 m[0,1,57] m[0,1,58] m[0,1,59] m[0,1,60] m[0,1,61] m[0,1,62] m[0,1,63]
 m[1,0,0] m[1,0,1] m[1,0,2] m[1,0,3] m[1,0,4] m[1,0,5] m[1,0,6] m[1,0,7]
 m[1,0,8] m[1,0,9] m[1,0,10] m[1,0,11] m[1,0,12] m[1,0,13] m[1,0,14]
 m[1,0,15] m[1,0,16] m[1,0,17] m[1,0,18] m[1,0,19] m[1,0,20] m[1,0,21]
 m[1,0,22] m[1,0,23] m[1,0,24] m[1,0,25] m[1,0,26] m[1,0,27] m[1,0,28]
 m[1,0,29] m[1,0,30] m[1,0,31] m[1,0,32] m[1,0,33] m[1,0,34] m[1,0,35]
 m[1,0,36] m[1,0,37] m[1,0,38] m[1,0,39] m[1,0,40] m[1,0,41] m[1,0,42]
 m[1,0,43] m[1,0,44] m[1,0,45] m[1,0,46] m[1,0,47] m[1,0,48] m[1,0,49]
 m[1,0,50] m[1,0,51] m[1,0,52] m[1,0,53] m[1,0,54] m[1,0,55] m[1,0,56]
 m[1,0,57] m[1,0,58] m[1,0,59] m[1,0,60] m[1,0,61] m[1,0,62] m[1,0,63]
 m[1,1,0] m[1,1,1] m[1,1,2] m[1,1,3] m[1,1,4] m[1,1,5] m[1,1,6] m[1,1,7]
 m[1,1,8] m[1,1,9] m[1,1,10] m[1,1,11] m[1,1,12] m[1,1,13] m[1,1,14]
 m[1,1,15] m[1,1,16] m[1,1,17] m[1,1,18] m[1,1,19] m[1,1,20] m[1,1,21]
 m[1,1,22] m[1,1,23] m[1,1,24] m[1,1,25] m[1,1,26] m[1,1,27] m[1,1,28]
 m[1,1,29] m[1,1,30] m[1,1,31] m[1,1,32] m[1,1,33] m[1,1,34] m[1,1,35]
 m[1,1,36] m[1,1,37] m[1,1,38] m[1,1,39] m[1,1,40] m[1,1,41] m[1,1,42]
 m[1,1,43] m[1,1,44] m[1,1,45] m[1,1,46] m[1,1,47] m[1,1,48] m[1,1,49]
 m[1,1,50] m[1,1,51] m[1,1,52] m[1,1,53] m[1,1,54] m[1,1,55] m[1,1,56]
 m[1,1,57] m[1,1,58] m[1,1,59] m[1,1,60] m[1,1,61] m[1,1,62] m[1,1,63]
 m[2,0,0] m[2,0,1] m[2,0,2] m[2,0,3] m[2,0,4] m[2,0,5] m[2,0,6] m[2,0,7]
 m[2,0,8] m[2,0,9] m[2,0,10] m[2,0,11] m[2,0,12] m[2,0,13] m[2,0,14]
 m[2,0,15] m[2,0,16] m[2,0,17] m[2,0,18] m[2,0,19] m[2,0,20] m[2,0,21]
 m[2,0,22] m[2,0,23] m[2,0,24] m[2,0,25] m[2,0,26] m[2,0,27] m[2,0,28]
 m[2,0,29] m[2,0,30] m[2,0,31] m[2,0,32] m[2,0,33] m[2,0,34] m[2,0,35]
 m[2,0,36] m[2,0,37] m[2,0,38] m[2,0,39] m[2,0,40] m[2,0,41] m[2,0,42]
 m[2,0,43] m[2,0,44] m[2,0,45] m[2,0,46] m[2,0,47] m[2,0,48] m[2,0,49]
 m[2,0,50] m[2,0,51] m[2,0,52] m[2,0,53] m[2,0,54] m[2,0,55] m[2,0,56]
 m[2,0,57] m[2,0,58] m[2,0,59] m[2,0,60] m[2,0,61] m[2,0,62] m[2,0,63]
 m[2,1,0] m[2,1,1] m[2,1,2] m[2,1,3] m[2,1,4] m[2,1,5] m[2,1,6] m[2,1,7]
 m[2,1,8] m[2,1,9] m[2,1,10] m[2,1,11] m[2,1,12] m[2,1,13] m[2,1,14]
 m[2,1,15] m[2,1,16] m[2,1,17] m[2,1,18] m[2,1,19] m[2,1,20] m[2,1,21]
 m[2,1,22] m[2,1,23] m[2,1,24] m[2,1,25] m[2,1,26] m[2,1,27] m[2,1,28]
 m[2,1,29] m[2,1,30] m[2,1,31] m[2,1,32] m[2,1,33] m[2,1,34] m[2,1,35]
 m[2,1,36] m[2,1,37] m[2,1,38] m[2,1,39] m[2,1,40] m[2,1,41] m[2,1,42]
 m[2,1,43] m[2,1,44] m[2,1,45] m[2,1,46] m[2,1,47] m[2,1,48] m[2,1,49]
 m[2,1,50] m[2,1,51] m[2,1,52] m[2,1,53] m[2,1,54] m[2,1,55] m[2,1,56]
 m[2,1,57] m[2,1,58] m[2,1,59] m[2,1,60] m[2,1,61] m[2,1,62] m[2,1,63]
 m[3,0,0] m[3,0,1] m[3,0,2] m[3,0,3] m[3,0,4] m[3,0,5] m[3,0,6] m[3,0,7]
 m[3,0,8] m[3,0,9] m[3,0,10] m[3,0,11] m[3,0,12] m[3,0,13] m[3,0,14]
 m[3,0,15] m[3,0,16] m[3,0,17] m[3,0,18] m[3,0,19] m[3,0,20] m[3,0,21]
 m[3,0,22] m[3,0,23] m[3,0,24] m[3,0,25] m[3,0,26] m[3,0,27] m[3,0,28]
 m[3,0,29] m[3,0,30] m[3,0,31] m[3,0,32] m[3,0,33] m[3,0,34] m[3,0,35]
 m[3,0,36] m[3,0,37] m[3,0,38] m[3,0,39] m[3,0,40] m[3,0,41] m[3,0,42]
 m[3,0,43] m[3,0,44] m[3,0,45] m[3,0,46] m[3,0,47] m[3,0,48] m[3,0,49]
 m[3,0,50] m[3,0,51] m[3,0,52] m[3,0,53] m[3,0,54] m[3,0,55] m[3,0,56]
 m[3,0,57] m[3,0,58] m[3,0,59] m[3,0,60] m[3,0,61] m[3,0,62] m[3,0,63]
 m[3,1,0] m[3,1,1] m[3,1,2] m[3,1,3] m[3,1,4] m[3,1,5] m[3,1,6] m[3,1,7]
 m[3,1,8] m[3,1,9] m[3,1,10] m[3,1,11] m[3,1,12] m[3,1,13] m[3,1,14]
 m[3,1,15] m[3,1,16] m[3,1,17] m[3,1,18] m[3,1,19] m[3,1,20] m[3,1,21]
 m[3,1,22] m[3,1,23] m[3,1,24] m[3,1,25] m[3,1,26] m[3,1,27] m[3,1,28]
 m[3,1,29] m[3,1,30] m[3,1,31] m[3,1,32] m[3,1,33] m[3,1,34] m[3,1,35]
 m[3,1,36] m[3,1,37] m[3,1,38] m[3,1,39] m[3,1,40] m[3,1,41] m[3,1,42]
 m[3,1,43] m[3,1,44] m[3,1,45] m[3,1,46] m[3,1,47] m[3,1,48] m[3,1,49]
 m[3,1,50] m[3,1,51] m[3,1,52] m[3,1,53] m[3,1,54] m[3,1,55] m[3,1,56]
 m[3,1,57] m[3,1,58] m[3,1,59] m[3,1,60] m[3,1,61] m[3,1,62] m[3,1,63]
 m[4,0,0] m[4,0,1] m[4,0,2] m[4,0,3] m[4,0,4] m[4,0,5] m[4,0,6] m[4,0,7]
 m[4,0,8] m[4,0,9] m[4,0,10] m[4,0,11] m[4,0,12] m[4,0,13] m[4,0,14]
 m[4,0,15] m[4,0,16] m[4,0,17] m[4,0,18] m[4,0,19] m[4,0,20] m[4,0,21]
 m[4,0,22] m[4,0,23] m[4,0,24] m[4,0,25] m[4,0,26] m[4,0,27] m[4,0,28]
 m[4,0,29] m[4,0,30] m[4,0,31] m[4,0,32] m[4,0,33] m[4,0,34] m[4,0,35]
 m[4,0,36] m[4,0,37] m[4,0,38] m[4,0,39] m[4,0,40] m[4,0,41] m[4,0,42]
 m[4,0,43] m[4,0,44] m[4,0,45] m[4,0,46] m[4,0,47] m[4,0,48] m[4,0,49]
 m[4,0,50] m[4,0,51] m[4,0,52] m[4,0,53] m[4,0,54] m[4,0,55] m[4,0,56]
 m[4,0,57] m[4,0,58] m[4,0,59] m[4,0,60] m[4,0,61] m[4,0,62] m[4,0,63]
 m[4,1,0] m[4,1,1] m[4,1,2] m[4,1,3] m[4,1,4] m[4,1,5] m[4,1,6] m[4,1,7]
 m[4,1,8] m[4,1,9] m[4,1,10] m[4,1,11] m[4,1,12] m[4,1,13] m[4,1,14]
 m[4,1,15] m[4,1,16] m[4,1,17] m[4,1,18] m[4,1,19] m[4,1,20] m[4,1,21]
 m[4,1,22] m[4,1,23] m[4,1,24] m[4,1,25] m[4,1,26] m[4,1,27] m[4,1,28]
 m[4,1,29] m[4,1,30] m[4,1,31] m[4,1,32] m[4,1,33] m[4,1,34] m[4,1,35]
 m[4,1,36] m[4,1,37] m[4,1,38] m[4,1,39] m[4,1,40] m[4,1,41] m[4,1,42]
 m[4,1,43] m[4,1,44] m[4,1,45] m[4,1,46] m[4,1,47] m[4,1,48] m[4,1,49]
 m[4,1,50] m[4,1,51] m[4,1,52] m[4,1,53] m[4,1,54] m[4,1,55] m[4,1,56]
 m[4,1,57] m[4,1,58] m[4,1,59] m[4,1,60] m[4,1,61] m[4,1,62] m[4,1,63]
 m[5,0,0] m[5,0,1] m[5,0,2] m[5,0,3] m[5,0,4] m[5,0,5] m[5,0,6] m[5,0,7]
 m[5,0,8] m[5,0,9] m[5,0,10] m[5,0,11] m[5,0,12] m[5,0,13] m[5,0,14]
 m[5,0,15] m[5,0,16] m[5,0,17] m[5,0,18] m[5,0,19] m[5,0,20] m[5,0,21]
 m[5,0,22] m[5,0,23] m[5,0,24] m[5,0,25] m[5,0,26] m[5,0,27] m[5,0,28]
 m[5,0,29] m[5,0,30] m[5,0,31] m[5,0,32] m[5,0,33] m[5,0,34] m[5,0,35]
 m[5,0,36] m[5,0,37] m[5,0,38] m[5,0,39] m[5,0,40] m[5,0,41] m[5,0,42]
 m[5,0,43] m[5,0,44] m[5,0,45] m[5,0,46] m[5,0,47] m[5,0,48] m[5,0,49]
 m[5,0,50] m[5,0,51] m[5,0,52] m[5,0,53] m[5,0,54] m[5,0,55] m[5,0,56]
 m[5,0,57] m[5,0,58] m[5,0,59] m[5,0,60] m[5,0,61] m[5,0,62] m[5,0,63]
 m[5,1,0] m[5,1,1] m[5,1,2] m[5,1,3] m[5,1,4] m[5,1,5] m[5,1,6] m[5,1,7]
 m[5,1,8] m[5,1,9] m[5,1,10] m[5,1,11] m[5,1,12] m[5,1,13] m[5,1,14]
 m[5,1,15] m[5,1,16] m[5,1,17] m[5,1,18] m[5,1,19] m[5,1,20] m[5,1,21]
 m[5,1,22] m[5,1,23] m[5,1,24] m[5,1,25] m[5,1,26] m[5,1,27] m[5,1,28]
 m[5,1,29] m[5,1,30] m[5,1,31] m[5,1,32] m[5,1,33] m[5,1,34] m[5,1,35]
 m[5,1,36] m[5,1,37] m[5,1,38] m[5,1,39] m[5,1,40] m[5,1,41] m[5,1,42]
 m[5,1,43] m[5,1,44] m[5,1,45] m[5,1,46] m[5,1,47] m[5,1,48] m[5,1,49]
 m[5,1,50] m[5,1,51] m[5,1,52] m[5,1,53] m[5,1,54] m[5,1,55] m[5,1,56]
 m[5,1,57] m[5,1,58] m[5,1,59] m[5,1,60] m[5,1,61] m[5,1,62] m[5,1,63]
 m[6,0,0] m[6,0,1] m[6,0,2] m[6,0,3] m[6,0,4] m[6,0,5] m[6,0,6] m[6,0,7]
 m[6,0,8] m[6,0,9] m[6,0,10] m[6,0,11] m[6,0,12] m[6,0,13] m[6,0,14]
 m[6,0,15] m[6,0,16] m[6,0,17] m[6,0,18] m[6,0,19] m[6,0,20] m[6,0,21]
 m[6,0,22] m[6,0,23] m[6,0,24] m[6,0,25] m[6,0,26] m[6,0,27] m[6,0,28]
 m[6,0,29] m[6,0,30] m[6,0,31] m[6,0,32] m[6,0,33] m[6,0,34] m[6,0,35]
 m[6,0,36] m[6,0,37] m[6,0,38] m[6,0,39] m[6,0,40] m[6,0,41] m[6,0,42]
 m[6,0,43] m[6,0,44] m[6,0,45] m[6,0,46] m[6,0,47] m[6,0,48] m[6,0,49]
 m[6,0,50] m[6,0,51] m[6,0,52] m[6,0,53] m[6,0,54] m[6,0,55] m[6,0,56]
 m[6,0,57] m[6,0,58] m[6,0,59] m[6,0,60] m[6,0,61] m[6,0,62] m[6,0,63]
 m[6,1,0] m[6,1,1] m[6,1,2] m[6,1,3] m[6,1,4] m[6,1,5] m[6,1,6] m[6,1,7]
 m[6,1,8] m[6,1,9] m[6,1,10] m[6,1,11] m[6,1,12] m[6,1,13] m[6,1,14]
 m[6,1,15] m[6,1,16] m[6,1,17] m[6,1,18] m[6,1,19] m[6,1,20] m[6,1,21]
 m[6,1,22] m[6,1,23] m[6,1,24] m[6,1,25] m[6,1,26] m[6,1,27] m[6,1,28]
 m[6,1,29] m[6,1,30] m[6,1,31] m[6,1,32] m[6,1,33] m[6,1,34] m[6,1,35]
 m[6,1,36] m[6,1,37] m[6,1,38] m[6,1,39] m[6,1,40] m[6,1,41] m[6,1,42]
 m[6,1,43] m[6,1,44] m[6,1,45] m[6,1,46] m[6,1,47] m[6,1,48] m[6,1,49]
 m[6,1,50] m[6,1,51] m[6,1,52] m[6,1,53] m[6,1,54] m[6,1,55] m[6,1,56]
 m[6,1,57] m[6,1,58] m[6,1,59] m[6,1,60] m[6,1,61] m[6,1,62] m[6,1,63]
 m[7,0,0] m[7,0,1] m[7,0,2] m[7,0,3] m[7,0,4] m[7,0,5] m[7,0,6] m[7,0,7]
 m[7,0,8] m[7,0,9] m[7,0,10] m[7,0,11] m[7,0,12] m[7,0,13] m[7,0,14]
 m[7,0,15] m[7,0,16] m[7,0,17] m[7,0,18] m[7,0,19] m[7,0,20] m[7,0,21]
 m[7,0,22] m[7,0,23] m[7,0,24] m[7,0,25] m[7,0,26] m[7,0,27] m[7,0,28]
 m[7,0,29] m[7,0,30] m[7,0,31] m[7,0,32] m[7,0,33] m[7,0,34] m[7,0,35]
 m[7,0,36] m[7,0,37] m[7,0,38] m[7,0,39] m[7,0,40] m[7,0,41] m[7,0,42]
 m[7,0,43] m[7,0,44] m[7,0,45] m[7,0,46] m[7,0,47] m[7,0,48] m[7,0,49]
 m[7,0,50] m[7,0,51] m[7,0,52] m[7,0,53] m[7,0,54] m[7,0,55] m[7,0,56]
 m[7,0,57] m[7,0,58] m[7,0,59] m[7,0,60] m[7,0,61] m[7,0,62] m[7,0,63]
 m[7,1,0] m[7,1,1] m[7,1,2] m[7,1,3] m[7,1,4] m[7,1,5] m[7,1,6] m[7,1,7]
 m[7,1,8] m[7,1,9] m[7,1,10] m[7,1,11] m[7,1,12] m[7,1,13] m[7,1,14]
 m[7,1,15] m[7,1,16] m[7,1,17] m[7,1,18] m[7,1,19] m[7,1,20] m[7,1,21]
 m[7,1,22] m[7,1,23] m[7,1,24] m[7,1,25] m[7,1,26] m[7,1,27] m[7,1,28]
 m[7,1,29] m[7,1,30] m[7,1,31] m[7,1,32] m[7,1,33] m[7,1,34] m[7,1,35]
 m[7,1,36] m[7,1,37] m[7,1,38] m[7,1,39] m[7,1,40] m[7,1,41] m[7,1,42]
 m[7,1,43] m[7,1,44] m[7,1,45] m[7,1,46] m[7,1,47] m[7,1,48] m[7,1,49]
 m[7,1,50] m[7,1,51] m[7,1,52] m[7,1,53] m[7,1,54] m[7,1,55] m[7,1,56]
 m[7,1,57] m[7,1,58] m[7,1,59] m[7,1,60] m[7,1,61] m[7,1,62] m[7,1,63]
 m[8,0,0] m[8,0,1] m[8,0,2] m[8,0,3] m[8,0,4] m[8,0,5] m[8,0,6] m[8,0,7]
 m[8,0,8] m[8,0,9] m[8,0,10] m[8,0,11] m[8,0,12] m[8,0,13] m[8,0,14]
 m[8,0,15] m[8,0,16] m[8,0,17] m[8,0,18] m[8,0,19] m[8,0,20] m[8,0,21]
 m[8,0,22] m[8,0,23] m[8,0,24] m[8,0,25] m[8,0,26] m[8,0,27] m[8,0,28]
 m[8,0,29] m[8,0,30] m[8,0,31] m[8,0,32] m[8,0,33] m[8,0,34] m[8,0,35]
 m[8,0,36] m[8,0,37] m[8,0,38] m[8,0,39] m[8,0,40] m[8,0,41] m[8,0,42]
 m[8,0,43] m[8,0,44] m[8,0,45] m[8,0,46] m[8,0,47] m[8,0,48] m[8,0,49]
 m[8,0,50] m[8,0,51] m[8,0,52] m[8,0,53] m[8,0,54] m[8,0,55] m[8,0,56]
 m[8,0,57] m[8,0,58] m[8,0,59] m[8,0,60] m[8,0,61] m[8,0,62] m[8,0,63]
 m[8,1,0] m[8,1,1] m[8,1,2] m[8,1,3] m[8,1,4] m[8,1,5] m[8,1,6] m[8,1,7]
 m[8,1,8] m[8,1,9] m[8,1,10] m[8,1,11] m[8,1,12] m[8,1,13] m[8,1,14]
 m[8,1,15] m[8,1,16] m[8,1,17] m[8,1,18] m[8,1,19] m[8,1,20] m[8,1,21]
 m[8,1,22] m[8,1,23] m[8,1,24] m[8,1,25] m[8,1,26] m[8,1,27] m[8,1,28]
 m[8,1,29] m[8,1,30] m[8,1,31] m[8,1,32] m[8,1,33] m[8,1,34] m[8,1,35]
 m[8,1,36] m[8,1,37] m[8,1,38] m[8,1,39] m[8,1,40] m[8,1,41] m[8,1,42]
 m[8,1,43] m[8,1,44] m[8,1,45] m[8,1,46] m[8,1,47] m[8,1,48] m[8,1,49]
 m[8,1,50] m[8,1,51] m[8,1,52] m[8,1,53] m[8,1,54] m[8,1,55] m[8,1,56]
 m[8,1,57] m[8,1,58] m[8,1,59] m[8,1,60] m[8,1,61] m[8,1,62] m[8,1,63]
 m[9,0,0] m[9,0,1] m[9,0,2] m[9,0,3] m[9,0,4] m[9,0,5] m[9,0,6] m[9,0,7]
 m[9,0,8] m[9,0,9] m[9,0,10] m[9,0,11] m[9,0,12] m[9,0,13] m[9,0,14]
 m[9,0,15] m[9,0,16] m[9,0,17] m[9,0,18] m[9,0,19] m[9,0,20] m[9,0,21]
 m[9,0,22] m[9,0,23] m[9,0,24] m[9,0,25] m[9,0,26] m[9,0,27] m[9,0,28]
 m[9,0,29] m[9,0,30] m[9,0,31] m[9,0,32] m[9,0,33] m[9,0,34] m[9,0,35]
 m[9,0,36] m[9,0,37] m[9,0,38] m[9,0,39] m[9,0,40] m[9,0,41] m[9,0,42]
 m[9,0,43] m[9,0,44] m[9,0,45] m[9,0,46] m[9,0,47] m[9,0,48] m[9,0,49]
 m[9,0,50] m[9,0,51] m[9,0,52] m[9,0,53] m[9,0,54] m[9,0,55] m[9,0,56]
 m[9,0,57] m[9,0,58] m[9,0,59] m[9,0,60] m[9,0,61] m[9,0,62] m[9,0,63]
 m[9,1,0] m[9,1,1] m[9,1,2] m[9,1,3] m[9,1,4] m[9,1,5] m[9,1,6] m[9,1,7]
 m[9,1,8] m[9,1,9] m[9,1,10] m[9,1,11] m[9,1,12] m[9,1,13] m[9,1,14]
 m[9,1,15] m[9,1,16] m[9,1,17] m[9,1,18] m[9,1,19] m[9,1,20] m[9,1,21]
 m[9,1,22] m[9,1,23] m[9,1,24] m[9,1,25] m[9,1,26] m[9,1,27] m[9,1,28]
 m[9,1,29] m[9,1,30] m[9,1,31] m[9,1,32] m[9,1,33] m[9,1,34] m[9,1,35]
 m[9,1,36] m[9,1,37] m[9,1,38] m[9,1,39] m[9,1,40] m[9,1,41] m[9,1,42]
 m[9,1,43] m[9,1,44] m[9,1,45] m[9,1,46] m[9,1,47] m[9,1,48] m[9,1,49]
 m[9,1,50] m[9,1,51] m[9,1,52] m[9,1,53] m[9,1,54] m[9,1,55] m[9,1,56]
 m[9,1,57] m[9,1,58] m[9,1,59] m[9,1,60] m[9,1,61] m[9,1,62] m[9,1,63]
 m[10,0,0] m[10,0,1] m[10,0,2] m[10,0,3] m[10,0,4] m[10,0,5] m[10,0,6]
 m[10,0,7] m[10,0,8] m[10,0,9] m[10,0,10] m[10,0,11] m[10,0,12] m[10,0,13]
 m[10,0,14] m[10,0,15] m[10,0,16] m[10,0,17] m[10,0,18] m[10,0,19]
 m[10,0,20] m[10,0,21] m[10,0,22] m[10,0,23] m[10,0,24] m[10,0,25]
 m[10,0,26] m[10,0,27] m[10,0,28] m[10,0,29] m[10,0,30] m[10,0,31]
 m[10,0,32] m[10,0,33] m[10,0,34] m[10,0,35] m[10,0,36] m[10,0,37]
 m[10,0,38] m[10,0,39] m[10,0,40] m[10,0,41] m[10,0,42] m[10,0,43]
 m[10,0,44] m[10,0,45] m[10,0,46] m[10,0,47] m[10,0,48] m[10,0,49]
 m[10,0,50] m[10,0,51] m[10,0,52] m[10,0,53] m[10,0,54] m[10,0,55]
 m[10,0,56] m[10,0,57] m[10,0,58] m[10,0,59] m[10,0,60] m[10,0,61]
 m[10,0,62] m[10,0,63] m[10,1,0] m[10,1,1] m[10,1,2] m[10,1,3] m[10,1,4]
 m[10,1,5] m[10,1,6] m[10,1,7] m[10,1,8] m[10,1,9] m[10,1,10] m[10,1,11]
 m[10,1,12] m[10,1,13] m[10,1,14] m[10,1,15] m[10,1,16] m[10,1,17]
 m[10,1,18] m[10,1,19] m[10,1,20] m[10,1,21] m[10,1,22] m[10,1,23]
 m[10,1,24] m[10,1,25] m[10,1,26] m[10,1,27] m[10,1,28] m[10,1,29]
 m[10,1,30] m[10,1,31] m[10,1,32] m[10,1,33] m[10,1,34] m[10,1,35]
 m[10,1,36] m[10,1,37] m[10,1,38] m[10,1,39] m[10,1,40] m[10,1,41]
 m[10,1,42] m[10,1,43] m[10,1,44] m[10,1,45] m[10,1,46] m[10,1,47]
 m[10,1,48] m[10,1,49] m[10,1,50] m[10,1,51] m[10,1,52] m[10,1,53]
 m[10,1,54] m[10,1,55] m[10,1,56] m[10,1,57] m[10,1,58] m[10,1,59]
 m[10,1,60] m[10,1,61] m[10,1,62] m[10,1,63] m[11,0,0] m[11,0,1] m[11,0,2]
 m[11,0,3] m[11,0,4] m[11,0,5] m[11,0,6] m[11,0,7] m[11,0,8] m[11,0,9]
 m[11,0,10] m[11,0,11] m[11,0,12] m[11,0,13] m[11,0,14] m[11,0,15]
 m[11,0,16] m[11,0,17] m[11,0,18] m[11,0,19] m[11,0,20] m[11,0,21]
 m[11,0,22] m[11,0,23] m[11,0,24] m[11,0,25] m[11,0,26] m[11,0,27]
 m[11,0,28] m[11,0,29] m[11,0,30] m[11,0,31] m[11,0,32] m[11,0,33]
 m[11,0,34] m[11,0,35] m[11,0,36] m[11,0,37] m[11,0,38] m[11,0,39]
 m[11,0,40] m[11,0,41] m[11,0,42] m[11,0,43] m[11,0,44] m[11,0,45]
 m[11,0,46] m[11,0,47] m[11,0,48] m[11,0,49] m[11,0,50] m[11,0,51]
 m[11,0,52] m[11,0,53] m[11,0,54] m[11,0,55] m[11,0,56] m[11,0,57]
 m[11,0,58] m[11,0,59] m[11,0,60] m[11,0,61] m[11,0,62] m[11,0,63]
 m[11,1,0] m[11,1,1] m[11,1,2] m[11,1,3] m[11,1,4] m[11,1,5] m[11,1,6]
 m[11,1,7] m[11,1,8] m[11,1,9] m[11,1,10] m[11,1,11] m[11,1,12] m[11,1,13]
 m[11,1,14] m[11,1,15] m[11,1,16] m[11,1,17] m[11,1,18] m[11,1,19]
 m[11,1,20] m[11,1,21] m[11,1,22] m[11,1,23] m[11,1,24] m[11,1,25]
 m[11,1,26] m[11,1,27] m[11,1,28] m[11,1,29] m[11,1,30] m[11,1,31]
 m[11,1,32] m[11,1,33] m[11,1,34] m[11,1,35] m[11,1,36] m[11,1,37]
 m[11,1,38] m[11,1,39] m[11,1,40] m[11,1,41] m[11,1,42] m[11,1,43]
 m[11,1,44] m[11,1,45] m[11,1,46] m[11,1,47] m[11,1,48] m[11,1,49]
 m[11,1,50] m[11,1,51] m[11,1,52] m[11,1,53] m[11,1,54] m[11,1,55]
 m[11,1,56] m[11,1,57] m[11,1,58] m[11,1,59] m[11,1,60] m[11,1,61]
 m[11,1,62] m[11,1,63] m[12,0,0] m[12,0,1] m[12,0,2] m[12,0,3] m[12,0,4]
 m[12,0,5] m[12,0,6] m[12,0,7] m[12,0,8] m[12,0,9] m[12,0,10] m[12,0,11]
 m[12,0,12] m[12,0,13] m[12,0,14] m[12,0,15] m[12,0,16] m[12,0,17]
 m[12,0,18] m[12,0,19] m[12,0,20] m[12,0,21] m[12,0,22] m[12,0,23]
 m[12,0,24] m[12,0,25] m[12,0,26] m[12,0,27] m[12,0,28] m[12,0,29]
 m[12,0,30] m[12,0,31] m[12,0,32] m[12,0,33] m[12,0,34] m[12,0,35]
 m[12,0,36] m[12,0,37] m[12,0,38] m[12,0,39] m[12,0,40] m[12,0,41]
 m[12,0,42] m[12,0,43] m[12,0,44] m[12,0,45] m[12,0,46] m[12,0,47]
 m[12,0,48] m[12,0,49] m[12,0,50] m[12,0,51] m[12,0,52] m[12,0,53]
 m[12,0,54] m[12,0,55] m[12,0,56] m[12,0,57] m[12,0,58] m[12,0,59]
 m[12,0,60] m[12,0,61] m[12,0,62] m[12,0,63] m[12,1,0] m[12,1,1] m[12,1,2]
 m[12,1,3] m[12,1,4] m[12,1,5] m[12,1,6] m[12,1,7] m[12,1,8] m[12,1,9]
 m[12,1,10] m[12,1,11] m[12,1,12] m[12,1,13] m[12,1,14] m[12,1,15]
 m[12,1,16] m[12,1,17] m[12,1,18] m[12,1,19] m[12,1,20] m[12,1,21]
 m[12,1,22] m[12,1,23] m[12,1,24] m[12,1,25] m[12,1,26] m[12,1,27]
 m[12,1,28] m[12,1,29] m[12,1,30] m[12,1,31] m[12,1,32] m[12,1,33]
 m[12,1,34] m[12,1,35] m[12,1,36] m[12,1,37] m[12,1,38] m[12,1,39]
 m[12,1,40] m[12,1,41] m[12,1,42] m[12,1,43] m[12,1,44] m[12,1,45]
 m[12,1,46] m[12,1,47] m[12,1,48] m[12,1,49] m[12,1,50] m[12,1,51]
 m[12,1,52] m[12,1,53] m[12,1,54] m[12,1,55] m[12,1,56] m[12,1,57]
 m[12,1,58] m[12,1,59] m[12,1,60] m[12,1,61] m[12,1,62] m[12,1,63]
 m[13,0,0] m[13,0,1] m[13,0,2] m[13,0,3] m[13,0,4] m[13,0,5] m[13,0,6]
 m[13,0,7] m[13,0,8] m[13,0,9] m[13,0,10] m[13,0,11] m[13,0,12] m[13,0,13]
 m[13,0,14] m[13,0,15] m[13,0,16] m[13,0,17] m[13,0,18] m[13,0,19]
 m[13,0,20] m[13,0,21] m[13,0,22] m[13,0,23] m[13,0,24] m[13,0,25]
 m[13,0,26] m[13,0,27] m[13,0,28] m[13,0,29] m[13,0,30] m[13,0,31]
 m[13,0,32] m[13,0,33] m[13,0,34] m[13,0,35] m[13,0,36] m[13,0,37]
 m[13,0,38] m[13,0,39] m[13,0,40] m[13,0,41] m[13,0,42] m[13,0,43]
 m[13,0,44] m[13,0,45] m[13,0,46] m[13,0,47] m[13,0,48] m[13,0,49]
 m[13,0,50] m[13,0,51] m[13,0,52] m[13,0,53] m[13,0,54] m[13,0,55]
 m[13,0,56] m[13,0,57] m[13,0,58] m[13,0,59] m[13,0,60] m[13,0,61]
 m[13,0,62] m[13,0,63] m[13,1,0] m[13,1,1] m[13,1,2] m[13,1,3] m[13,1,4]
 m[13,1,5] m[13,1,6] m[13,1,7] m[13,1,8] m[13,1,9] m[13,1,10] m[13,1,11]
 m[13,1,12] m[13,1,13] m[13,1,14] m[13,1,15] m[13,1,16] m[13,1,17]
 m[13,1,18] m[13,1,19] m[13,1,20] m[13,1,21] m[13,1,22] m[13,1,23]
 m[13,1,24] m[13,1,25] m[13,1,26] m[13,1,27] m[13,1,28] m[13,1,29]
 m[13,1,30] m[13,1,31] m[13,1,32] m[13,1,33] m[13,1,34] m[13,1,35]
 m[13,1,36] m[13,1,37] m[13,1,38] m[13,1,39] m[13,1,40] m[13,1,41]
 m[13,1,42] m[13,1,43] m[13,1,44] m[13,1,45] m[13,1,46] m[13,1,47]
 m[13,1,48] m[13,1,49] m[13,1,50] m[13,1,51] m[13,1,52] m[13,1,53]
 m[13,1,54] m[13,1,55] m[13,1,56] m[13,1,57] m[13,1,58] m[13,1,59]
 m[13,1,60] m[13,1,61] m[13,1,62] m[13,1,63] c[0,0,0.0] c[0,0,-3.0]
 c[0,0,-2.0] c[0,0,-1.41504] c[0,0,-1.0] c[0,1,0.0] c[0,1,-3.0] c[0,1,-2.0]
 c[0,1,-1.41504] c[0,1,-1.0] c[0,2,0.0] c[0,2,-3.0] c[0,2,-2.0]
 c[0,2,-1.41504] c[0,2,-1.0] c[0,3,0.0] c[0,3,-3.0] c[0,3,-2.0]
 c[0,3,-1.41504] c[0,3,-1.0] c[0,4,0.0] c[0,4,-3.0] c[0,4,-2.0]
 c[0,4,-1.41504] c[0,4,-1.0] c[0,5,0.0] c[0,5,-3.0] c[0,5,-2.0]
 c[0,5,-1.41504] c[0,5,-1.0] c[0,6,0.0] c[0,6,-3.0] c[0,6,-2.0]
 c[0,6,-1.41504] c[0,6,-1.0] c[0,7,0.0] c[0,7,-3.0] c[0,7,-2.0]
 c[0,7,-1.41504] c[0,7,-1.0] c[0,8,0.0] c[0,8,-3.0] c[0,8,-2.0]
 c[0,8,-1.41504] c[0,8,-1.0] c[0,9,0.0] c[0,9,-3.0] c[0,9,-2.0]
 c[0,9,-1.41504] c[0,9,-1.0] c[0,10,0.0] c[0,10,-3.0] c[0,10,-2.0]
 c[0,10,-1.41504] c[0,10,-1.0] c[0,11,0.0] c[0,11,-3.0] c[0,11,-2.0]
 c[0,11,-1.41504] c[0,11,-1.0] c[0,12,0.0] c[0,12,-3.0] c[0,12,-2.0]
 c[0,12,-1.41504] c[0,12,-1.0] c[0,13,0.0] c[0,13,-3.0] c[0,13,-2.0]
 c[0,13,-1.41504] c[0,13,-1.0] c[0,14,0.0] c[0,14,-3.0] c[0,14,-2.0]
 c[0,14,-1.41504] c[0,14,-1.0] c[0,15,0.0] c[0,15,-3.0] c[0,15,-2.0]
 c[0,15,-1.41504] c[0,15,-1.0] c[1,0,0.0] c[1,0,-3.0] c[1,0,-2.0]
 c[1,0,-1.41504] c[1,0,-1.0] c[1,1,0.0] c[1,1,-3.0] c[1,1,-2.0]
 c[1,1,-1.41504] c[1,1,-1.0] c[1,2,0.0] c[1,2,-3.0] c[1,2,-2.0]
 c[1,2,-1.41504] c[1,2,-1.0] c[1,3,0.0] c[1,3,-3.0] c[1,3,-2.0]
 c[1,3,-1.41504] c[1,3,-1.0] c[1,4,0.0] c[1,4,-3.0] c[1,4,-2.0]
 c[1,4,-1.41504] c[1,4,-1.0] c[1,5,0.0] c[1,5,-3.0] c[1,5,-2.0]
 c[1,5,-1.41504] c[1,5,-1.0] c[1,6,0.0] c[1,6,-3.0] c[1,6,-2.0]
 c[1,6,-1.41504] c[1,6,-1.0] c[1,7,0.0] c[1,7,-3.0] c[1,7,-2.0]
 c[1,7,-1.41504] c[1,7,-1.0] c[1,8,0.0] c[1,8,-3.0] c[1,8,-2.0]
 c[1,8,-1.41504] c[1,8,-1.0] c[1,9,0.0] c[1,9,-3.0] c[1,9,-2.0]
 c[1,9,-1.41504] c[1,9,-1.0] c[1,10,0.0] c[1,10,-3.0] c[1,10,-2.0]
 c[1,10,-1.41504] c[1,10,-1.0] c[1,11,0.0] c[1,11,-3.0] c[1,11,-2.0]
 c[1,11,-1.41504] c[1,11,-1.0] c[1,12,0.0] c[1,12,-3.0] c[1,12,-2.0]
 c[1,12,-1.41504] c[1,12,-1.0] c[1,13,0.0] c[1,13,-3.0] c[1,13,-2.0]
 c[1,13,-1.41504] c[1,13,-1.0] c[1,14,0.0] c[1,14,-3.0] c[1,14,-2.0]
 c[1,14,-1.41504] c[1,14,-1.0] c[1,15,0.0] c[1,15,-3.0] c[1,15,-2.0]
 c[1,15,-1.41504] c[1,15,-1.0] c[2,0,0.0] c[2,0,-3.0] c[2,0,-2.0]
 c[2,0,-1.41504] c[2,0,-1.0] c[2,1,0.0] c[2,1,-3.0] c[2,1,-2.0]
 c[2,1,-1.41504] c[2,1,-1.0] c[2,2,0.0] c[2,2,-3.0] c[2,2,-2.0]
 c[2,2,-1.41504] c[2,2,-1.0] c[2,3,0.0] c[2,3,-3.0] c[2,3,-2.0]
 c[2,3,-1.41504] c[2,3,-1.0] c[2,4,0.0] c[2,4,-3.0] c[2,4,-2.0]
 c[2,4,-1.41504] c[2,4,-1.0] c[2,5,0.0] c[2,5,-3.0] c[2,5,-2.0]
 c[2,5,-1.41504] c[2,5,-1.0] c[2,6,0.0] c[2,6,-3.0] c[2,6,-2.0]
 c[2,6,-1.41504] c[2,6,-1.0] c[2,7,0.0] c[2,7,-3.0] c[2,7,-2.0]
 c[2,7,-1.41504] c[2,7,-1.0] c[2,8,0.0] c[2,8,-3.0] c[2,8,-2.0]
 c[2,8,-1.41504] c[2,8,-1.0] c[2,9,0.0] c[2,9,-3.0] c[2,9,-2.0]
 c[2,9,-1.41504] c[2,9,-1.0] c[2,10,0.0] c[2,10,-3.0] c[2,10,-2.0]
 c[2,10,-1.41504] c[2,10,-1.0] c[2,11,0.0] c[2,11,-3.0] c[2,11,-2.0]
 c[2,11,-1.41504] c[2,11,-1.0] c[2,12,0.0] c[2,12,-3.0] c[2,12,-2.0]
 c[2,12,-1.41504] c[2,12,-1.0] c[2,13,0.0] c[2,13,-3.0] c[2,13,-2.0]
 c[2,13,-1.41504] c[2,13,-1.0] c[2,14,0.0] c[2,14,-3.0] c[2,14,-2.0]
 c[2,14,-1.41504] c[2,14,-1.0] c[2,15,0.0] c[2,15,-3.0] c[2,15,-2.0]
 c[2,15,-1.41504] c[2,15,-1.0] c[3,0,0.0] c[3,0,-3.0] c[3,0,-2.0]
 c[3,0,-1.41504] c[3,0,-1.0] c[3,1,0.0] c[3,1,-3.0] c[3,1,-2.0]
 c[3,1,-1.41504] c[3,1,-1.0] c[3,2,0.0] c[3,2,-3.0] c[3,2,-2.0]
 c[3,2,-1.41504] c[3,2,-1.0] c[3,3,0.0] c[3,3,-3.0] c[3,3,-2.0]
 c[3,3,-1.41504] c[3,3,-1.0] c[3,4,0.0] c[3,4,-3.0] c[3,4,-2.0]
 c[3,4,-1.41504] c[3,4,-1.0] c[3,5,0.0] c[3,5,-3.0] c[3,5,-2.0]
 c[3,5,-1.41504] c[3,5,-1.0] c[3,6,0.0] c[3,6,-3.0] c[3,6,-2.0]
 c[3,6,-1.41504] c[3,6,-1.0] c[3,7,0.0] c[3,7,-3.0] c[3,7,-2.0]
 c[3,7,-1.41504] c[3,7,-1.0] c[3,8,0.0] c[3,8,-3.0] c[3,8,-2.0]
 c[3,8,-1.41504] c[3,8,-1.0] c[3,9,0.0] c[3,9,-3.0] c[3,9,-2.0]
 c[3,9,-1.41504] c[3,9,-1.0] c[3,10,0.0] c[3,10,-3.0] c[3,10,-2.0]
 c[3,10,-1.41504] c[3,10,-1.0] c[3,11,0.0] c[3,11,-3.0] c[3,11,-2.0]
 c[3,11,-1.41504] c[3,11,-1.0] c[3,12,0.0] c[3,12,-3.0] c[3,12,-2.0]
 c[3,12,-1.41504] c[3,12,-1.0] c[3,13,0.0] c[3,13,-3.0] c[3,13,-2.0]
 c[3,13,-1.41504] c[3,13,-1.0] c[3,14,0.0] c[3,14,-3.0] c[3,14,-2.0]
 c[3,14,-1.41504] c[3,14,-1.0] c[3,15,0.0] c[3,15,-3.0] c[3,15,-2.0]
 c[3,15,-1.41504] c[3,15,-1.0] c[4,0,0.0] c[4,0,-3.0] c[4,0,-2.0]
 c[4,0,-1.41504] c[4,0,-1.0] c[4,1,0.0] c[4,1,-3.0] c[4,1,-2.0]
 c[4,1,-1.41504] c[4,1,-1.0] c[4,2,0.0] c[4,2,-3.0] c[4,2,-2.0]
 c[4,2,-1.41504] c[4,2,-1.0] c[4,3,0.0] c[4,3,-3.0] c[4,3,-2.0]
 c[4,3,-1.41504] c[4,3,-1.0] c[4,4,0.0] c[4,4,-3.0] c[4,4,-2.0]
 c[4,4,-1.41504] c[4,4,-1.0] c[4,5,0.0] c[4,5,-3.0] c[4,5,-2.0]
 c[4,5,-1.41504] c[4,5,-1.0] c[4,6,0.0] c[4,6,-3.0] c[4,6,-2.0]
 c[4,6,-1.41504] c[4,6,-1.0] c[4,7,0.0] c[4,7,-3.0] c[4,7,-2.0]
 c[4,7,-1.41504] c[4,7,-1.0] c[4,8,0.0] c[4,8,-3.0] c[4,8,-2.0]
 c[4,8,-1.41504] c[4,8,-1.0] c[4,9,0.0] c[4,9,-3.0] c[4,9,-2.0]
 c[4,9,-1.41504] c[4,9,-1.0] c[4,10,0.0] c[4,10,-3.0] c[4,10,-2.0]
 c[4,10,-1.41504] c[4,10,-1.0] c[4,11,0.0] c[4,11,-3.0] c[4,11,-2.0]
 c[4,11,-1.41504] c[4,11,-1.0] c[4,12,0.0] c[4,12,-3.0] c[4,12,-2.0]
 c[4,12,-1.41504] c[4,12,-1.0] c[4,13,0.0] c[4,13,-3.0] c[4,13,-2.0]
 c[4,13,-1.41504] c[4,13,-1.0] c[4,14,0.0] c[4,14,-3.0] c[4,14,-2.0]
 c[4,14,-1.41504] c[4,14,-1.0] c[4,15,0.0] c[4,15,-3.0] c[4,15,-2.0]
 c[4,15,-1.41504] c[4,15,-1.0] c[5,0,0.0] c[5,0,-3.0] c[5,0,-2.0]
 c[5,0,-1.41504] c[5,0,-1.0] c[5,1,0.0] c[5,1,-3.0] c[5,1,-2.0]
 c[5,1,-1.41504] c[5,1,-1.0] c[5,2,0.0] c[5,2,-3.0] c[5,2,-2.0]
 c[5,2,-1.41504] c[5,2,-1.0] c[5,3,0.0] c[5,3,-3.0] c[5,3,-2.0]
 c[5,3,-1.41504] c[5,3,-1.0] c[5,4,0.0] c[5,4,-3.0] c[5,4,-2.0]
 c[5,4,-1.41504] c[5,4,-1.0] c[5,5,0.0] c[5,5,-3.0] c[5,5,-2.0]
 c[5,5,-1.41504] c[5,5,-1.0] c[5,6,0.0] c[5,6,-3.0] c[5,6,-2.0]
 c[5,6,-1.41504] c[5,6,-1.0] c[5,7,0.0] c[5,7,-3.0] c[5,7,-2.0]
 c[5,7,-1.41504] c[5,7,-1.0] c[5,8,0.0] c[5,8,-3.0] c[5,8,-2.0]
 c[5,8,-1.41504] c[5,8,-1.0] c[5,9,0.0] c[5,9,-3.0] c[5,9,-2.0]
 c[5,9,-1.41504] c[5,9,-1.0] c[5,10,0.0] c[5,10,-3.0] c[5,10,-2.0]
 c[5,10,-1.41504] c[5,10,-1.0] c[5,11,0.0] c[5,11,-3.0] c[5,11,-2.0]
 c[5,11,-1.41504] c[5,11,-1.0] c[5,12,0.0] c[5,12,-3.0] c[5,12,-2.0]
 c[5,12,-1.41504] c[5,12,-1.0] c[5,13,0.0] c[5,13,-3.0] c[5,13,-2.0]
 c[5,13,-1.41504] c[5,13,-1.0] c[5,14,0.0] c[5,14,-3.0] c[5,14,-2.0]
 c[5,14,-1.41504] c[5,14,-1.0] c[5,15,0.0] c[5,15,-3.0] c[5,15,-2.0]
 c[5,15,-1.41504] c[5,15,-1.0] c[6,0,0.0] c[6,0,-3.0] c[6,0,-2.0]
 c[6,0,-1.41504] c[6,0,-1.0] c[6,1,0.0] c[6,1,-3.0] c[6,1,-2.0]
 c[6,1,-1.41504] c[6,1,-1.0] c[6,2,0.0] c[6,2,-3.0] c[6,2,-2.0]
 c[6,2,-1.41504] c[6,2,-1.0] c[6,3,0.0] c[6,3,-3.0] c[6,3,-2.0]
 c[6,3,-1.41504] c[6,3,-1.0] c[6,4,0.0] c[6,4,-3.0] c[6,4,-2.0]
 c[6,4,-1.41504] c[6,4,-1.0] c[6,5,0.0] c[6,5,-3.0] c[6,5,-2.0]
 c[6,5,-1.41504] c[6,5,-1.0] c[6,6,0.0] c[6,6,-3.0] c[6,6,-2.0]
 c[6,6,-1.41504] c[6,6,-1.0] c[6,7,0.0] c[6,7,-3.0] c[6,7,-2.0]
 c[6,7,-1.41504] c[6,7,-1.0] c[6,8,0.0] c[6,8,-3.0] c[6,8,-2.0]
 c[6,8,-1.41504] c[6,8,-1.0] c[6,9,0.0] c[6,9,-3.0] c[6,9,-2.0]
 c[6,9,-1.41504] c[6,9,-1.0] c[6,10,0.0] c[6,10,-3.0] c[6,10,-2.0]
 c[6,10,-1.41504] c[6,10,-1.0] c[6,11,0.0] c[6,11,-3.0] c[6,11,-2.0]
 c[6,11,-1.41504] c[6,11,-1.0] c[6,12,0.0] c[6,12,-3.0] c[6,12,-2.0]
 c[6,12,-1.41504] c[6,12,-1.0] c[6,13,0.0] c[6,13,-3.0] c[6,13,-2.0]
 c[6,13,-1.41504] c[6,13,-1.0] c[6,14,0.0] c[6,14,-3.0] c[6,14,-2.0]
 c[6,14,-1.41504] c[6,14,-1.0] c[6,15,0.0] c[6,15,-3.0] c[6,15,-2.0]
 c[6,15,-1.41504] c[6,15,-1.0] c[7,0,0.0] c[7,0,-3.0] c[7,0,-2.0]
 c[7,0,-1.41504] c[7,0,-1.0] c[7,1,0.0] c[7,1,-3.0] c[7,1,-2.0]
 c[7,1,-1.41504] c[7,1,-1.0] c[7,2,0.0] c[7,2,-3.0] c[7,2,-2.0]
 c[7,2,-1.41504] c[7,2,-1.0] c[7,3,0.0] c[7,3,-3.0] c[7,3,-2.0]
 c[7,3,-1.41504] c[7,3,-1.0] c[7,4,0.0] c[7,4,-3.0] c[7,4,-2.0]
 c[7,4,-1.41504] c[7,4,-1.0] c[7,5,0.0] c[7,5,-3.0] c[7,5,-2.0]
 c[7,5,-1.41504] c[7,5,-1.0] c[7,6,0.0] c[7,6,-3.0] c[7,6,-2.0]
 c[7,6,-1.41504] c[7,6,-1.0] c[7,7,0.0] c[7,7,-3.0] c[7,7,-2.0]
 c[7,7,-1.41504] c[7,7,-1.0] c[7,8,0.0] c[7,8,-3.0] c[7,8,-2.0]
 c[7,8,-1.41504] c[7,8,-1.0] c[7,9,0.0] c[7,9,-3.0] c[7,9,-2.0]
 c[7,9,-1.41504] c[7,9,-1.0] c[7,10,0.0] c[7,10,-3.0] c[7,10,-2.0]
 c[7,10,-1.41504] c[7,10,-1.0] c[7,11,0.0] c[7,11,-3.0] c[7,11,-2.0]
 c[7,11,-1.41504] c[7,11,-1.0] c[7,12,0.0] c[7,12,-3.0] c[7,12,-2.0]
 c[7,12,-1.41504] c[7,12,-1.0] c[7,13,0.0] c[7,13,-3.0] c[7,13,-2.0]
 c[7,13,-1.41504] c[7,13,-1.0] c[7,14,0.0] c[7,14,-3.0] c[7,14,-2.0]
 c[7,14,-1.41504] c[7,14,-1.0] c[7,15,0.0] c[7,15,-3.0] c[7,15,-2.0]
 c[7,15,-1.41504] c[7,15,-1.0] c[8,0,0.0] c[8,0,-3.0] c[8,0,-2.0]
 c[8,0,-1.41504] c[8,0,-1.0] c[8,1,0.0] c[8,1,-3.0] c[8,1,-2.0]
 c[8,1,-1.41504] c[8,1,-1.0] c[8,2,0.0] c[8,2,-3.0] c[8,2,-2.0]
 c[8,2,-1.41504] c[8,2,-1.0] c[8,3,0.0] c[8,3,-3.0] c[8,3,-2.0]
 c[8,3,-1.41504] c[8,3,-1.0] c[8,4,0.0] c[8,4,-3.0] c[8,4,-2.0]
 c[8,4,-1.41504] c[8,4,-1.0] c[8,5,0.0] c[8,5,-3.0] c[8,5,-2.0]
 c[8,5,-1.41504] c[8,5,-1.0] c[8,6,0.0] c[8,6,-3.0] c[8,6,-2.0]
 c[8,6,-1.41504] c[8,6,-1.0] c[8,7,0.0] c[8,7,-3.0] c[8,7,-2.0]
 c[8,7,-1.41504] c[8,7,-1.0] c[8,8,0.0] c[8,8,-3.0] c[8,8,-2.0]
 c[8,8,-1.41504] c[8,8,-1.0] c[8,9,0.0] c[8,9,-3.0] c[8,9,-2.0]
 c[8,9,-1.41504] c[8,9,-1.0] c[8,10,0.0] c[8,10,-3.0] c[8,10,-2.0]
 c[8,10,-1.41504] c[8,10,-1.0] c[8,11,0.0] c[8,11,-3.0] c[8,11,-2.0]
 c[8,11,-1.41504] c[8,11,-1.0] c[8,12,0.0] c[8,12,-3.0] c[8,12,-2.0]
 c[8,12,-1.41504] c[8,12,-1.0] c[8,13,0.0] c[8,13,-3.0] c[8,13,-2.0]
 c[8,13,-1.41504] c[8,13,-1.0] c[8,14,0.0] c[8,14,-3.0] c[8,14,-2.0]
 c[8,14,-1.41504] c[8,14,-1.0] c[8,15,0.0] c[8,15,-3.0] c[8,15,-2.0]
 c[8,15,-1.41504] c[8,15,-1.0] c[9,0,0.0] c[9,0,-3.0] c[9,0,-2.0]
 c[9,0,-1.41504] c[9,0,-1.0] c[9,1,0.0] c[9,1,-3.0] c[9,1,-2.0]
 c[9,1,-1.41504] c[9,1,-1.0] c[9,2,0.0] c[9,2,-3.0] c[9,2,-2.0]
 c[9,2,-1.41504] c[9,2,-1.0] c[9,3,0.0] c[9,3,-3.0] c[9,3,-2.0]
 c[9,3,-1.41504] c[9,3,-1.0] c[9,4,0.0] c[9,4,-3.0] c[9,4,-2.0]
 c[9,4,-1.41504] c[9,4,-1.0] c[9,5,0.0] c[9,5,-3.0] c[9,5,-2.0]
 c[9,5,-1.41504] c[9,5,-1.0] c[9,6,0.0] c[9,6,-3.0] c[9,6,-2.0]
 c[9,6,-1.41504] c[9,6,-1.0] c[9,7,0.0] c[9,7,-3.0] c[9,7,-2.0]
 c[9,7,-1.41504] c[9,7,-1.0] c[9,8,0.0] c[9,8,-3.0] c[9,8,-2.0]
 c[9,8,-1.41504] c[9,8,-1.0] c[9,9,0.0] c[9,9,-3.0] c[9,9,-2.0]
 c[9,9,-1.41504] c[9,9,-1.0] c[9,10,0.0] c[9,10,-3.0] c[9,10,-2.0]
 c[9,10,-1.41504] c[9,10,-1.0] c[9,11,0.0] c[9,11,-3.0] c[9,11,-2.0]
 c[9,11,-1.41504] c[9,11,-1.0] c[9,12,0.0] c[9,12,-3.0] c[9,12,-2.0]
 c[9,12,-1.41504] c[9,12,-1.0] c[9,13,0.0] c[9,13,-3.0] c[9,13,-2.0]
 c[9,13,-1.41504] c[9,13,-1.0] c[9,14,0.0] c[9,14,-3.0] c[9,14,-2.0]
 c[9,14,-1.41504] c[9,14,-1.0] c[9,15,0.0] c[9,15,-3.0] c[9,15,-2.0]
 c[9,15,-1.41504] c[9,15,-1.0] c[10,0,0.0] c[10,0,-3.0] c[10,0,-2.0]
 c[10,0,-1.41504] c[10,0,-1.0] c[10,1,0.0] c[10,1,-3.0] c[10,1,-2.0]
 c[10,1,-1.41504] c[10,1,-1.0] c[10,2,0.0] c[10,2,-3.0] c[10,2,-2.0]
 c[10,2,-1.41504] c[10,2,-1.0] c[10,3,0.0] c[10,3,-3.0] c[10,3,-2.0]
 c[10,3,-1.41504] c[10,3,-1.0] c[10,4,0.0] c[10,4,-3.0] c[10,4,-2.0]
 c[10,4,-1.41504] c[10,4,-1.0] c[10,5,0.0] c[10,5,-3.0] c[10,5,-2.0]
 c[10,5,-1.41504] c[10,5,-1.0] c[10,6,0.0] c[10,6,-3.0] c[10,6,-2.0]
 c[10,6,-1.41504] c[10,6,-1.0] c[10,7,0.0] c[10,7,-3.0] c[10,7,-2.0]
 c[10,7,-1.41504] c[10,7,-1.0] c[10,8,0.0] c[10,8,-3.0] c[10,8,-2.0]
 c[10,8,-1.41504] c[10,8,-1.0] c[10,9,0.0] c[10,9,-3.0] c[10,9,-2.0]
 c[10,9,-1.41504] c[10,9,-1.0] c[10,10,0.0] c[10,10,-3.0] c[10,10,-2.0]
 c[10,10,-1.41504] c[10,10,-1.0] c[10,11,0.0] c[10,11,-3.0] c[10,11,-2.0]
 c[10,11,-1.41504] c[10,11,-1.0] c[10,12,0.0] c[10,12,-3.0] c[10,12,-2.0]
 c[10,12,-1.41504] c[10,12,-1.0] c[10,13,0.0] c[10,13,-3.0] c[10,13,-2.0]
 c[10,13,-1.41504] c[10,13,-1.0] c[10,14,0.0] c[10,14,-3.0] c[10,14,-2.0]
 c[10,14,-1.41504] c[10,14,-1.0] c[10,15,0.0] c[10,15,-3.0] c[10,15,-2.0]
 c[10,15,-1.41504] c[10,15,-1.0] c[11,0,0.0] c[11,0,-3.0] c[11,0,-2.0]
 c[11,0,-1.41504] c[11,0,-1.0] c[11,1,0.0] c[11,1,-3.0] c[11,1,-2.0]
 c[11,1,-1.41504] c[11,1,-1.0] c[11,2,0.0] c[11,2,-3.0] c[11,2,-2.0]
 c[11,2,-1.41504] c[11,2,-1.0] c[11,3,0.0] c[11,3,-3.0] c[11,3,-2.0]
 c[11,3,-1.41504] c[11,3,-1.0] c[11,4,0.0] c[11,4,-3.0] c[11,4,-2.0]
 c[11,4,-1.41504] c[11,4,-1.0] c[11,5,0.0] c[11,5,-3.0] c[11,5,-2.0]
 c[11,5,-1.41504] c[11,5,-1.0] c[11,6,0.0] c[11,6,-3.0] c[11,6,-2.0]
 c[11,6,-1.41504] c[11,6,-1.0] c[11,7,0.0] c[11,7,-3.0] c[11,7,-2.0]
 c[11,7,-1.41504] c[11,7,-1.0] c[11,8,0.0] c[11,8,-3.0] c[11,8,-2.0]
 c[11,8,-1.41504] c[11,8,-1.0] c[11,9,0.0] c[11,9,-3.0] c[11,9,-2.0]
 c[11,9,-1.41504] c[11,9,-1.0] c[11,10,0.0] c[11,10,-3.0] c[11,10,-2.0]
 c[11,10,-1.41504] c[11,10,-1.0] c[11,11,0.0] c[11,11,-3.0] c[11,11,-2.0]
 c[11,11,-1.41504] c[11,11,-1.0] c[11,12,0.0] c[11,12,-3.0] c[11,12,-2.0]
 c[11,12,-1.41504] c[11,12,-1.0] c[11,13,0.0] c[11,13,-3.0] c[11,13,-2.0]
 c[11,13,-1.41504] c[11,13,-1.0] c[11,14,0.0] c[11,14,-3.0] c[11,14,-2.0]
 c[11,14,-1.41504] c[11,14,-1.0] c[11,15,0.0] c[11,15,-3.0] c[11,15,-2.0]
 c[11,15,-1.41504] c[11,15,-1.0] c[12,0,0.0] c[12,0,-3.0] c[12,0,-2.0]
 c[12,0,-1.41504] c[12,0,-1.0] c[12,1,0.0] c[12,1,-3.0] c[12,1,-2.0]
 c[12,1,-1.41504] c[12,1,-1.0] c[12,2,0.0] c[12,2,-3.0] c[12,2,-2.0]
 c[12,2,-1.41504] c[12,2,-1.0] c[12,3,0.0] c[12,3,-3.0] c[12,3,-2.0]
 c[12,3,-1.41504] c[12,3,-1.0] c[12,4,0.0] c[12,4,-3.0] c[12,4,-2.0]
 c[12,4,-1.41504] c[12,4,-1.0] c[12,5,0.0] c[12,5,-3.0] c[12,5,-2.0]
 c[12,5,-1.41504] c[12,5,-1.0] c[12,6,0.0] c[12,6,-3.0] c[12,6,-2.0]
 c[12,6,-1.41504] c[12,6,-1.0] c[12,7,0.0] c[12,7,-3.0] c[12,7,-2.0]
 c[12,7,-1.41504] c[12,7,-1.0] c[12,8,0.0] c[12,8,-3.0] c[12,8,-2.0]
 c[12,8,-1.41504] c[12,8,-1.0] c[12,9,0.0] c[12,9,-3.0] c[12,9,-2.0]
 c[12,9,-1.41504] c[12,9,-1.0] c[12,10,0.0] c[12,10,-3.0] c[12,10,-2.0]
 c[12,10,-1.41504] c[12,10,-1.0] c[12,11,0.0] c[12,11,-3.0] c[12,11,-2.0]
 c[12,11,-1.41504] c[12,11,-1.0] c[12,12,0.0] c[12,12,-3.0] c[12,12,-2.0]
 c[12,12,-1.41504] c[12,12,-1.0] c[12,13,0.0] c[12,13,-3.0] c[12,13,-2.0]
 c[12,13,-1.41504] c[12,13,-1.0] c[12,14,0.0] c[12,14,-3.0] c[12,14,-2.0]
 c[12,14,-1.41504] c[12,14,-1.0] c[12,15,0.0] c[12,15,-3.0] c[12,15,-2.0]
 c[12,15,-1.41504] c[12,15,-1.0] c[13,0,0.0] c[13,0,-3.0] c[13,0,-2.0]
 c[13,0,-1.41504] c[13,0,-1.0] c[13,1,0.0] c[13,1,-3.0] c[13,1,-2.0]
 c[13,1,-1.41504] c[13,1,-1.0] c[13,2,0.0] c[13,2,-3.0] c[13,2,-2.0]
 c[13,2,-1.41504] c[13,2,-1.0] c[13,3,0.0] c[13,3,-3.0] c[13,3,-2.0]
 c[13,3,-1.41504] c[13,3,-1.0] c[13,4,0.0] c[13,4,-3.0] c[13,4,-2.0]
 c[13,4,-1.41504] c[13,4,-1.0] c[13,5,0.0] c[13,5,-3.0] c[13,5,-2.0]
 c[13,5,-1.41504] c[13,5,-1.0] c[13,6,0.0] c[13,6,-3.0] c[13,6,-2.0]
 c[13,6,-1.41504] c[13,6,-1.0] c[13,7,0.0] c[13,7,-3.0] c[13,7,-2.0]
 c[13,7,-1.41504] c[13,7,-1.0] c[13,8,0.0] c[13,8,-3.0] c[13,8,-2.0]
 c[13,8,-1.41504] c[13,8,-1.0] c[13,9,0.0] c[13,9,-3.0] c[13,9,-2.0]
 c[13,9,-1.41504] c[13,9,-1.0] c[13,10,0.0] c[13,10,-3.0] c[13,10,-2.0]
 c[13,10,-1.41504] c[13,10,-1.0] c[13,11,0.0] c[13,11,-3.0] c[13,11,-2.0]
 c[13,11,-1.41504] c[13,11,-1.0] c[13,12,0.0] c[13,12,-3.0] c[13,12,-2.0]
 c[13,12,-1.41504] c[13,12,-1.0] c[13,13,0.0] c[13,13,-3.0] c[13,13,-2.0]
 c[13,13,-1.41504] c[13,13,-1.0] c[13,14,0.0] c[13,14,-3.0] c[13,14,-2.0]
 c[13,14,-1.41504] c[13,14,-1.0] c[13,15,0.0] c[13,15,-3.0] c[13,15,-2.0]
 c[13,15,-1.41504] c[13,15,-1.0]
End
