\ Model GIFT_SK_Quasi_Diff_MILP
\ LP format - for model browsing. Use MPS format to capture full model detail.
Minimize
 
Subject To
 R0: m[0,0,0] = 0
 R1: m[0,0,1] = 0
 R2: m[0,0,2] = 0
 R3: m[0,0,3] = 0
 R4: m[0,0,4] = 0
 R5: m[0,0,5] = 0
 R6: m[0,0,6] = 0
 R7: m[0,0,7] = 0
 R8: m[0,0,8] = 0
 R9: m[0,0,9] = 0
 R10: m[0,0,10] = 0
 R11: m[0,0,11] = 0
 R12: m[0,0,12] = 0
 R13: m[0,0,13] = 0
 R14: m[0,0,14] = 0
 R15: m[0,0,15] = 0
 R16: m[0,0,16] = 0
 R17: m[0,0,17] = 0
 R18: m[0,0,18] = 0
 R19: m[0,0,19] = 0
 R20: m[0,0,20] = 0
 R21: m[0,0,21] = 0
 R22: m[0,0,22] = 0
 R23: m[0,0,23] = 0
 R24: m[0,0,24] = 0
 R25: m[0,0,25] = 0
 R26: m[0,0,26] = 0
 R27: m[0,0,27] = 0
 R28: m[0,0,28] = 0
 R29: m[0,0,29] = 0
 R30: m[0,0,30] = 0
 R31: m[0,0,31] = 0
 R32: m[0,0,32] = 0
 R33: m[0,0,33] = 0
 R34: m[0,0,34] = 0
 R35: m[0,0,35] = 0
 R36: m[0,0,36] = 0
 R37: m[0,0,37] = 0
 R38: m[0,0,38] = 0
 R39: m[0,0,39] = 0
 R40: m[0,0,40] = 0
 R41: m[0,0,41] = 0
 R42: m[0,0,42] = 0
 R43: m[0,0,43] = 0
 R44: m[0,0,44] = 0
 R45: m[0,0,45] = 0
 R46: m[0,0,46] = 0
 R47: m[0,0,47] = 0
 R48: m[0,0,48] = 0
 R49: m[0,0,49] = 0
 R50: m[0,0,50] = 0
 R51: m[0,0,51] = 0
 R52: m[0,0,52] = 0
 R53: m[0,0,53] = 0
 R54: m[0,0,54] = 0
 R55: m[0,0,55] = 0
 R56: m[0,0,56] = 0
 R57: m[0,0,57] = 0
 R58: m[0,0,58] = 0
 R59: m[0,0,59] = 0
 R60: m[0,0,60] = 0
 R61: m[0,0,61] = 0
 R62: m[0,0,62] = 0
 R63: m[0,0,63] = 0
 R64: m[11,1,0] = 0
 R65: m[11,1,1] = 0
 R66: m[11,1,2] = 0
 R67: m[11,1,3] = 0
 R68: m[11,1,4] = 0
 R69: m[11,1,5] = 0
 R70: m[11,1,6] = 0
 R71: m[11,1,7] = 0
 R72: m[11,1,8] = 0
 R73: m[11,1,9] = 0
 R74: m[11,1,10] = 0
 R75: m[11,1,11] = 0
 R76: m[11,1,12] = 0
 R77: m[11,1,13] = 0
 R78: m[11,1,14] = 0
 R79: m[11,1,15] = 0
 R80: m[11,1,16] = 0
 R81: m[11,1,17] = 0
 R82: m[11,1,18] = 0
 R83: m[11,1,19] = 0
 R84: m[11,1,20] = 0
 R85: m[11,1,21] = 0
 R86: m[11,1,22] = 0
 R87: m[11,1,23] = 0
 R88: m[11,1,24] = 0
 R89: m[11,1,25] = 0
 R90: m[11,1,26] = 0
 R91: m[11,1,27] = 0
 R92: m[11,1,28] = 0
 R93: m[11,1,29] = 0
 R94: m[11,1,30] = 0
 R95: m[11,1,31] = 0
 R96: m[11,1,32] = 0
 R97: m[11,1,33] = 0
 R98: m[11,1,34] = 0
 R99: m[11,1,35] = 0
 R100: m[11,1,36] = 0
 R101: m[11,1,37] = 0
 R102: m[11,1,38] = 0
 R103: m[11,1,39] = 0
 R104: m[11,1,40] = 0
 R105: m[11,1,41] = 0
 R106: m[11,1,42] = 0
 R107: m[11,1,43] = 0
 R108: m[11,1,44] = 0
 R109: m[11,1,45] = 0
 R110: m[11,1,46] = 0
 R111: m[11,1,47] = 0
 R112: m[11,1,48] = 0
 R113: m[11,1,49] = 0
 R114: m[11,1,50] = 0
 R115: m[11,1,51] = 0
 R116: m[11,1,52] = 0
 R117: m[11,1,53] = 0
 R118: m[11,1,54] = 0
 R119: m[11,1,55] = 0
 R120: m[11,1,56] = 0
 R121: m[11,1,57] = 0
 R122: m[11,1,58] = 0
 R123: m[11,1,59] = 0
 R124: m[11,1,60] = 0
 R125: m[11,1,61] = 0
 R126: m[11,1,62] = 0
 R127: m[11,1,63] = 0
 R128: c[0,0,0.0] + c[0,0,-3.0] + c[0,0,-2.0] + c[0,0,-1.41504]
   + c[0,0,-1.0] = 1
 R129: - m[0,0,0] - m[0,0,1] - m[0,0,2] - m[0,0,3] - m[0,1,0] - m[0,1,1]
   - m[0,1,2] - m[0,1,3] - 50000 c[0,0,0.0] >= -50000
 R130: c[0,0,-3.0] = 0
 R131: - m[0,0,2] - m[0,0,3] - m[0,1,0] - m[0,1,1] - 50000 c[0,0,-2.0]
   >= -50003
 R132: m[0,0,2] + 2 m[0,1,0] + 3 m[0,1,1] - 50000 c[0,0,-2.0] >= -49997
 R133: 2 m[0,0,2] + 3 m[0,0,3] + 2 m[0,1,0] + m[0,1,1] - 50000 c[0,0,-2.0]
   >= -49996
 R134: c[0,0,-1.41504] = 0
 R135: - m[0,0,0] - 2 m[0,0,1] - 6649 m[0,0,2] + 6645 m[0,0,3]
   - 6645 m[0,1,0] - 4 m[0,1,1] - 2 m[0,1,2] - 3 m[0,1,3]
   - 50000 c[0,0,-1.0] >= -56656
 R136: - 4 m[0,0,0] - 7 m[0,0,1] + 2 m[0,0,2] - m[0,0,3] - m[0,1,0]
   + 2 m[0,1,1] - 6 m[0,1,2] - 6 m[0,1,3] - 50000 c[0,0,-1.0] >= -50018
 R137: 1898 m[0,0,0] + 2848 m[0,0,1] + 1901 m[0,0,2] - 6649 m[0,0,3]
   + 6647 m[0,1,0] - 5698 m[0,1,1] + 1899 m[0,1,2] + 2849 m[0,1,3]
   - 50000 c[0,0,-1.0] >= -50951
 R138: - m[0,0,0] + 11 m[0,0,1] + 5 m[0,0,2] + 9 m[0,1,0] + 11 m[0,1,1]
   + 5 m[0,1,2] - 2 m[0,1,3] - 50000 c[0,0,-1.0] >= -49992
 R139: - m[0,0,0] + 2 m[0,0,1] + 6649 m[0,0,2] - 6646 m[0,0,3]
   - 6647 m[0,1,1] - 2 m[0,1,2] + 3 m[0,1,3] - 50000 c[0,0,-1.0] >= -56647
 R140: 3 m[0,0,0] + 3 m[0,0,1] + 7 m[0,0,2] + 7 m[0,0,3] + 4 m[0,1,1]
   - m[0,1,2] - m[0,1,3] - 50000 c[0,0,-1.0] >= -49995
 R141: 4 m[0,0,0] - 6 m[0,0,1] + 15 m[0,0,2] + 2 m[0,0,3] - m[0,1,0]
   - 8 m[0,1,1] + 16 m[0,1,2] + 6 m[0,1,3] - 50000 c[0,0,-1.0] >= -49999
 R142: 3 m[0,0,0] - 4 m[0,0,1] - 16 m[0,0,2] - 9 m[0,1,0] + 20 m[0,1,1]
   + 4 m[0,1,2] + 8 m[0,1,3] - 50000 c[0,0,-1.0] >= -50009
 R143: c[0,1,0.0] + c[0,1,-3.0] + c[0,1,-2.0] + c[0,1,-1.41504]
   + c[0,1,-1.0] = 1
 R144: c[0,1,0.0] = 0
 R145: c[0,1,-3.0] = 0
 R146: - 3 m[0,0,4] - 2 m[0,0,5] - 2 m[0,1,5] + m[0,1,6] + m[0,1,7]
   - 50000 c[0,1,-2.0] >= -50004
 R147: 3 m[0,0,4] - 2 m[0,0,5] + 2 m[0,1,5] + m[0,1,6] - m[0,1,7]
   - 50000 c[0,1,-2.0] >= -50000
 R148: 3 m[0,0,4] + 2 m[0,0,5] - 2 m[0,1,5] - m[0,1,6] + m[0,1,7]
   - 50000 c[0,1,-2.0] >= -50000
 R149: - 3 m[0,0,4] + 2 m[0,0,5] + 2 m[0,1,5] - m[0,1,6] - m[0,1,7]
   - 50000 c[0,1,-2.0] >= -50002
 R150: c[0,1,-1.41504] = 0
 R151: c[0,1,-1.0] = 0
 R152: c[0,2,0.0] + c[0,2,-3.0] + c[0,2,-2.0] + c[0,2,-1.41504]
   + c[0,2,-1.0] = 1
 R153: - m[0,0,8] - m[0,0,9] - m[0,0,10] - m[0,0,11] - m[0,1,8] - m[0,1,9]
   - m[0,1,10] - m[0,1,11] - 50000 c[0,2,0.0] >= -50000
 R154: c[0,2,-3.0] = 0
 R155: - m[0,0,10] - m[0,0,11] - m[0,1,8] - m[0,1,9] - 50000 c[0,2,-2.0]
   >= -50003
 R156: m[0,0,10] + 2 m[0,1,8] + 3 m[0,1,9] - 50000 c[0,2,-2.0] >= -49997
 R157: 2 m[0,0,10] + 3 m[0,0,11] + 2 m[0,1,8] + m[0,1,9]
   - 50000 c[0,2,-2.0] >= -49996
 R158: c[0,2,-1.41504] = 0
 R159: - m[0,0,8] - 2 m[0,0,9] - 6649 m[0,0,10] + 6645 m[0,0,11]
   - 6645 m[0,1,8] - 4 m[0,1,9] - 2 m[0,1,10] - 3 m[0,1,11]
   - 50000 c[0,2,-1.0] >= -56656
 R160: - 4 m[0,0,8] - 7 m[0,0,9] + 2 m[0,0,10] - m[0,0,11] - m[0,1,8]
   + 2 m[0,1,9] - 6 m[0,1,10] - 6 m[0,1,11] - 50000 c[0,2,-1.0] >= -50018
 R161: 1898 m[0,0,8] + 2848 m[0,0,9] + 1901 m[0,0,10] - 6649 m[0,0,11]
   + 6647 m[0,1,8] - 5698 m[0,1,9] + 1899 m[0,1,10] + 2849 m[0,1,11]
   - 50000 c[0,2,-1.0] >= -50951
 R162: - m[0,0,8] + 11 m[0,0,9] + 5 m[0,0,10] + 9 m[0,1,8] + 11 m[0,1,9]
   + 5 m[0,1,10] - 2 m[0,1,11] - 50000 c[0,2,-1.0] >= -49992
 R163: - m[0,0,8] + 2 m[0,0,9] + 6649 m[0,0,10] - 6646 m[0,0,11]
   - 6647 m[0,1,9] - 2 m[0,1,10] + 3 m[0,1,11] - 50000 c[0,2,-1.0]
   >= -56647
 R164: 3 m[0,0,8] + 3 m[0,0,9] + 7 m[0,0,10] + 7 m[0,0,11] + 4 m[0,1,9]
   - m[0,1,10] - m[0,1,11] - 50000 c[0,2,-1.0] >= -49995
 R165: 4 m[0,0,8] - 6 m[0,0,9] + 15 m[0,0,10] + 2 m[0,0,11] - m[0,1,8]
   - 8 m[0,1,9] + 16 m[0,1,10] + 6 m[0,1,11] - 50000 c[0,2,-1.0] >= -49999
 R166: 3 m[0,0,8] - 4 m[0,0,9] - 16 m[0,0,10] - 9 m[0,1,8] + 20 m[0,1,9]
   + 4 m[0,1,10] + 8 m[0,1,11] - 50000 c[0,2,-1.0] >= -50009
 R167: c[0,3,0.0] + c[0,3,-3.0] + c[0,3,-2.0] + c[0,3,-1.41504]
   + c[0,3,-1.0] = 1
 R168: - m[0,0,12] - m[0,0,13] - m[0,0,14] - m[0,0,15] - m[0,1,12]
   - m[0,1,13] - m[0,1,14] - m[0,1,15] - 50000 c[0,3,0.0] >= -50000
 R169: c[0,3,-3.0] = 0
 R170: - m[0,0,14] - m[0,0,15] - m[0,1,12] - m[0,1,13] - 50000 c[0,3,-2.0]
   >= -50003
 R171: m[0,0,14] + 2 m[0,1,12] + 3 m[0,1,13] - 50000 c[0,3,-2.0] >= -49997
 R172: 2 m[0,0,14] + 3 m[0,0,15] + 2 m[0,1,12] + m[0,1,13]
   - 50000 c[0,3,-2.0] >= -49996
 R173: c[0,3,-1.41504] = 0
 R174: - m[0,0,12] - 2 m[0,0,13] - 6649 m[0,0,14] + 6645 m[0,0,15]
   - 6645 m[0,1,12] - 4 m[0,1,13] - 2 m[0,1,14] - 3 m[0,1,15]
   - 50000 c[0,3,-1.0] >= -56656
 R175: - 4 m[0,0,12] - 7 m[0,0,13] + 2 m[0,0,14] - m[0,0,15] - m[0,1,12]
   + 2 m[0,1,13] - 6 m[0,1,14] - 6 m[0,1,15] - 50000 c[0,3,-1.0] >= -50018
 R176: 1898 m[0,0,12] + 2848 m[0,0,13] + 1901 m[0,0,14] - 6649 m[0,0,15]
   + 6647 m[0,1,12] - 5698 m[0,1,13] + 1899 m[0,1,14] + 2849 m[0,1,15]
   - 50000 c[0,3,-1.0] >= -50951
 R177: - m[0,0,12] + 11 m[0,0,13] + 5 m[0,0,14] + 9 m[0,1,12]
   + 11 m[0,1,13] + 5 m[0,1,14] - 2 m[0,1,15] - 50000 c[0,3,-1.0]
   >= -49992
 R178: - m[0,0,12] + 2 m[0,0,13] + 6649 m[0,0,14] - 6646 m[0,0,15]
   - 6647 m[0,1,13] - 2 m[0,1,14] + 3 m[0,1,15] - 50000 c[0,3,-1.0]
   >= -56647
 R179: 3 m[0,0,12] + 3 m[0,0,13] + 7 m[0,0,14] + 7 m[0,0,15] + 4 m[0,1,13]
   - m[0,1,14] - m[0,1,15] - 50000 c[0,3,-1.0] >= -49995
 R180: 4 m[0,0,12] - 6 m[0,0,13] + 15 m[0,0,14] + 2 m[0,0,15] - m[0,1,12]
   - 8 m[0,1,13] + 16 m[0,1,14] + 6 m[0,1,15] - 50000 c[0,3,-1.0]
   >= -49999
 R181: 3 m[0,0,12] - 4 m[0,0,13] - 16 m[0,0,14] - 9 m[0,1,12]
   + 20 m[0,1,13] + 4 m[0,1,14] + 8 m[0,1,15] - 50000 c[0,3,-1.0]
   >= -50009
 R182: c[0,4,0.0] + c[0,4,-3.0] + c[0,4,-2.0] + c[0,4,-1.41504]
   + c[0,4,-1.0] = 1
 R183: - m[0,0,16] - m[0,0,17] - m[0,0,18] - m[0,0,19] - m[0,1,16]
   - m[0,1,17] - m[0,1,18] - m[0,1,19] - 50000 c[0,4,0.0] >= -50000
 R184: c[0,4,-3.0] = 0
 R185: - m[0,0,18] - m[0,0,19] - m[0,1,16] - m[0,1,17] - 50000 c[0,4,-2.0]
   >= -50003
 R186: m[0,0,18] + 2 m[0,1,16] + 3 m[0,1,17] - 50000 c[0,4,-2.0] >= -49997
 R187: 2 m[0,0,18] + 3 m[0,0,19] + 2 m[0,1,16] + m[0,1,17]
   - 50000 c[0,4,-2.0] >= -49996
 R188: c[0,4,-1.41504] = 0
 R189: - m[0,0,16] - 2 m[0,0,17] - 6649 m[0,0,18] + 6645 m[0,0,19]
   - 6645 m[0,1,16] - 4 m[0,1,17] - 2 m[0,1,18] - 3 m[0,1,19]
   - 50000 c[0,4,-1.0] >= -56656
 R190: - 4 m[0,0,16] - 7 m[0,0,17] + 2 m[0,0,18] - m[0,0,19] - m[0,1,16]
   + 2 m[0,1,17] - 6 m[0,1,18] - 6 m[0,1,19] - 50000 c[0,4,-1.0] >= -50018
 R191: 1898 m[0,0,16] + 2848 m[0,0,17] + 1901 m[0,0,18] - 6649 m[0,0,19]
   + 6647 m[0,1,16] - 5698 m[0,1,17] + 1899 m[0,1,18] + 2849 m[0,1,19]
   - 50000 c[0,4,-1.0] >= -50951
 R192: - m[0,0,16] + 11 m[0,0,17] + 5 m[0,0,18] + 9 m[0,1,16]
   + 11 m[0,1,17] + 5 m[0,1,18] - 2 m[0,1,19] - 50000 c[0,4,-1.0]
   >= -49992
 R193: - m[0,0,16] + 2 m[0,0,17] + 6649 m[0,0,18] - 6646 m[0,0,19]
   - 6647 m[0,1,17] - 2 m[0,1,18] + 3 m[0,1,19] - 50000 c[0,4,-1.0]
   >= -56647
 R194: 3 m[0,0,16] + 3 m[0,0,17] + 7 m[0,0,18] + 7 m[0,0,19] + 4 m[0,1,17]
   - m[0,1,18] - m[0,1,19] - 50000 c[0,4,-1.0] >= -49995
 R195: 4 m[0,0,16] - 6 m[0,0,17] + 15 m[0,0,18] + 2 m[0,0,19] - m[0,1,16]
   - 8 m[0,1,17] + 16 m[0,1,18] + 6 m[0,1,19] - 50000 c[0,4,-1.0]
   >= -49999
 R196: 3 m[0,0,16] - 4 m[0,0,17] - 16 m[0,0,18] - 9 m[0,1,16]
   + 20 m[0,1,17] + 4 m[0,1,18] + 8 m[0,1,19] - 50000 c[0,4,-1.0]
   >= -50009
 R197: c[0,5,0.0] + c[0,5,-3.0] + c[0,5,-2.0] + c[0,5,-1.41504]
   + c[0,5,-1.0] = 1
 R198: - m[0,0,20] - m[0,0,21] - m[0,0,22] - m[0,0,23] - m[0,1,20]
   - m[0,1,21] - m[0,1,22] - m[0,1,23] - 50000 c[0,5,0.0] >= -50000
 R199: c[0,5,-3.0] = 0
 R200: - m[0,0,22] - m[0,0,23] - m[0,1,20] - m[0,1,21] - 50000 c[0,5,-2.0]
   >= -50003
 R201: m[0,0,22] + 2 m[0,1,20] + 3 m[0,1,21] - 50000 c[0,5,-2.0] >= -49997
 R202: 2 m[0,0,22] + 3 m[0,0,23] + 2 m[0,1,20] + m[0,1,21]
   - 50000 c[0,5,-2.0] >= -49996
 R203: c[0,5,-1.41504] = 0
 R204: - m[0,0,20] - 2 m[0,0,21] - 6649 m[0,0,22] + 6645 m[0,0,23]
   - 6645 m[0,1,20] - 4 m[0,1,21] - 2 m[0,1,22] - 3 m[0,1,23]
   - 50000 c[0,5,-1.0] >= -56656
 R205: - 4 m[0,0,20] - 7 m[0,0,21] + 2 m[0,0,22] - m[0,0,23] - m[0,1,20]
   + 2 m[0,1,21] - 6 m[0,1,22] - 6 m[0,1,23] - 50000 c[0,5,-1.0] >= -50018
 R206: 1898 m[0,0,20] + 2848 m[0,0,21] + 1901 m[0,0,22] - 6649 m[0,0,23]
   + 6647 m[0,1,20] - 5698 m[0,1,21] + 1899 m[0,1,22] + 2849 m[0,1,23]
   - 50000 c[0,5,-1.0] >= -50951
 R207: - m[0,0,20] + 11 m[0,0,21] + 5 m[0,0,22] + 9 m[0,1,20]
   + 11 m[0,1,21] + 5 m[0,1,22] - 2 m[0,1,23] - 50000 c[0,5,-1.0]
   >= -49992
 R208: - m[0,0,20] + 2 m[0,0,21] + 6649 m[0,0,22] - 6646 m[0,0,23]
   - 6647 m[0,1,21] - 2 m[0,1,22] + 3 m[0,1,23] - 50000 c[0,5,-1.0]
   >= -56647
 R209: 3 m[0,0,20] + 3 m[0,0,21] + 7 m[0,0,22] + 7 m[0,0,23] + 4 m[0,1,21]
   - m[0,1,22] - m[0,1,23] - 50000 c[0,5,-1.0] >= -49995
 R210: 4 m[0,0,20] - 6 m[0,0,21] + 15 m[0,0,22] + 2 m[0,0,23] - m[0,1,20]
   - 8 m[0,1,21] + 16 m[0,1,22] + 6 m[0,1,23] - 50000 c[0,5,-1.0]
   >= -49999
 R211: 3 m[0,0,20] - 4 m[0,0,21] - 16 m[0,0,22] - 9 m[0,1,20]
   + 20 m[0,1,21] + 4 m[0,1,22] + 8 m[0,1,23] - 50000 c[0,5,-1.0]
   >= -50009
 R212: c[0,6,0.0] + c[0,6,-3.0] + c[0,6,-2.0] + c[0,6,-1.41504]
   + c[0,6,-1.0] = 1
 R213: - m[0,0,24] - m[0,0,25] - m[0,0,26] - m[0,0,27] - m[0,1,24]
   - m[0,1,25] - m[0,1,26] - m[0,1,27] - 50000 c[0,6,0.0] >= -50000
 R214: c[0,6,-3.0] = 0
 R215: - m[0,0,26] - m[0,0,27] - m[0,1,24] - m[0,1,25] - 50000 c[0,6,-2.0]
   >= -50003
 R216: m[0,0,26] + 2 m[0,1,24] + 3 m[0,1,25] - 50000 c[0,6,-2.0] >= -49997
 R217: 2 m[0,0,26] + 3 m[0,0,27] + 2 m[0,1,24] + m[0,1,25]
   - 50000 c[0,6,-2.0] >= -49996
 R218: c[0,6,-1.41504] = 0
 R219: - m[0,0,24] - 2 m[0,0,25] - 6649 m[0,0,26] + 6645 m[0,0,27]
   - 6645 m[0,1,24] - 4 m[0,1,25] - 2 m[0,1,26] - 3 m[0,1,27]
   - 50000 c[0,6,-1.0] >= -56656
 R220: - 4 m[0,0,24] - 7 m[0,0,25] + 2 m[0,0,26] - m[0,0,27] - m[0,1,24]
   + 2 m[0,1,25] - 6 m[0,1,26] - 6 m[0,1,27] - 50000 c[0,6,-1.0] >= -50018
 R221: 1898 m[0,0,24] + 2848 m[0,0,25] + 1901 m[0,0,26] - 6649 m[0,0,27]
   + 6647 m[0,1,24] - 5698 m[0,1,25] + 1899 m[0,1,26] + 2849 m[0,1,27]
   - 50000 c[0,6,-1.0] >= -50951
 R222: - m[0,0,24] + 11 m[0,0,25] + 5 m[0,0,26] + 9 m[0,1,24]
   + 11 m[0,1,25] + 5 m[0,1,26] - 2 m[0,1,27] - 50000 c[0,6,-1.0]
   >= -49992
 R223: - m[0,0,24] + 2 m[0,0,25] + 6649 m[0,0,26] - 6646 m[0,0,27]
   - 6647 m[0,1,25] - 2 m[0,1,26] + 3 m[0,1,27] - 50000 c[0,6,-1.0]
   >= -56647
 R224: 3 m[0,0,24] + 3 m[0,0,25] + 7 m[0,0,26] + 7 m[0,0,27] + 4 m[0,1,25]
   - m[0,1,26] - m[0,1,27] - 50000 c[0,6,-1.0] >= -49995
 R225: 4 m[0,0,24] - 6 m[0,0,25] + 15 m[0,0,26] + 2 m[0,0,27] - m[0,1,24]
   - 8 m[0,1,25] + 16 m[0,1,26] + 6 m[0,1,27] - 50000 c[0,6,-1.0]
   >= -49999
 R226: 3 m[0,0,24] - 4 m[0,0,25] - 16 m[0,0,26] - 9 m[0,1,24]
   + 20 m[0,1,25] + 4 m[0,1,26] + 8 m[0,1,27] - 50000 c[0,6,-1.0]
   >= -50009
 R227: c[0,7,0.0] + c[0,7,-3.0] + c[0,7,-2.0] + c[0,7,-1.41504]
   + c[0,7,-1.0] = 1
 R228: - m[0,0,28] - m[0,0,29] - m[0,0,30] - m[0,0,31] - m[0,1,28]
   - m[0,1,29] - m[0,1,30] - m[0,1,31] - 50000 c[0,7,0.0] >= -50000
 R229: c[0,7,-3.0] = 0
 R230: - m[0,0,30] - m[0,0,31] - m[0,1,28] - m[0,1,29] - 50000 c[0,7,-2.0]
   >= -50003
 R231: m[0,0,30] + 2 m[0,1,28] + 3 m[0,1,29] - 50000 c[0,7,-2.0] >= -49997
 R232: 2 m[0,0,30] + 3 m[0,0,31] + 2 m[0,1,28] + m[0,1,29]
   - 50000 c[0,7,-2.0] >= -49996
 R233: c[0,7,-1.41504] = 0
 R234: - m[0,0,28] - 2 m[0,0,29] - 6649 m[0,0,30] + 6645 m[0,0,31]
   - 6645 m[0,1,28] - 4 m[0,1,29] - 2 m[0,1,30] - 3 m[0,1,31]
   - 50000 c[0,7,-1.0] >= -56656
 R235: - 4 m[0,0,28] - 7 m[0,0,29] + 2 m[0,0,30] - m[0,0,31] - m[0,1,28]
   + 2 m[0,1,29] - 6 m[0,1,30] - 6 m[0,1,31] - 50000 c[0,7,-1.0] >= -50018
 R236: 1898 m[0,0,28] + 2848 m[0,0,29] + 1901 m[0,0,30] - 6649 m[0,0,31]
   + 6647 m[0,1,28] - 5698 m[0,1,29] + 1899 m[0,1,30] + 2849 m[0,1,31]
   - 50000 c[0,7,-1.0] >= -50951
 R237: - m[0,0,28] + 11 m[0,0,29] + 5 m[0,0,30] + 9 m[0,1,28]
   + 11 m[0,1,29] + 5 m[0,1,30] - 2 m[0,1,31] - 50000 c[0,7,-1.0]
   >= -49992
 R238: - m[0,0,28] + 2 m[0,0,29] + 6649 m[0,0,30] - 6646 m[0,0,31]
   - 6647 m[0,1,29] - 2 m[0,1,30] + 3 m[0,1,31] - 50000 c[0,7,-1.0]
   >= -56647
 R239: 3 m[0,0,28] + 3 m[0,0,29] + 7 m[0,0,30] + 7 m[0,0,31] + 4 m[0,1,29]
   - m[0,1,30] - m[0,1,31] - 50000 c[0,7,-1.0] >= -49995
 R240: 4 m[0,0,28] - 6 m[0,0,29] + 15 m[0,0,30] + 2 m[0,0,31] - m[0,1,28]
   - 8 m[0,1,29] + 16 m[0,1,30] + 6 m[0,1,31] - 50000 c[0,7,-1.0]
   >= -49999
 R241: 3 m[0,0,28] - 4 m[0,0,29] - 16 m[0,0,30] - 9 m[0,1,28]
   + 20 m[0,1,29] + 4 m[0,1,30] + 8 m[0,1,31] - 50000 c[0,7,-1.0]
   >= -50009
 R242: c[0,8,0.0] + c[0,8,-3.0] + c[0,8,-2.0] + c[0,8,-1.41504]
   + c[0,8,-1.0] = 1
 R243: - m[0,0,32] - m[0,0,33] - m[0,0,34] - m[0,0,35] - m[0,1,32]
   - m[0,1,33] - m[0,1,34] - m[0,1,35] - 50000 c[0,8,0.0] >= -50000
 R244: c[0,8,-3.0] = 0
 R245: - m[0,0,34] - m[0,0,35] - m[0,1,32] - m[0,1,33] - 50000 c[0,8,-2.0]
   >= -50003
 R246: m[0,0,34] + 2 m[0,1,32] + 3 m[0,1,33] - 50000 c[0,8,-2.0] >= -49997
 R247: 2 m[0,0,34] + 3 m[0,0,35] + 2 m[0,1,32] + m[0,1,33]
   - 50000 c[0,8,-2.0] >= -49996
 R248: c[0,8,-1.41504] = 0
 R249: - m[0,0,32] - 2 m[0,0,33] - 6649 m[0,0,34] + 6645 m[0,0,35]
   - 6645 m[0,1,32] - 4 m[0,1,33] - 2 m[0,1,34] - 3 m[0,1,35]
   - 50000 c[0,8,-1.0] >= -56656
 R250: - 4 m[0,0,32] - 7 m[0,0,33] + 2 m[0,0,34] - m[0,0,35] - m[0,1,32]
   + 2 m[0,1,33] - 6 m[0,1,34] - 6 m[0,1,35] - 50000 c[0,8,-1.0] >= -50018
 R251: 1898 m[0,0,32] + 2848 m[0,0,33] + 1901 m[0,0,34] - 6649 m[0,0,35]
   + 6647 m[0,1,32] - 5698 m[0,1,33] + 1899 m[0,1,34] + 2849 m[0,1,35]
   - 50000 c[0,8,-1.0] >= -50951
 R252: - m[0,0,32] + 11 m[0,0,33] + 5 m[0,0,34] + 9 m[0,1,32]
   + 11 m[0,1,33] + 5 m[0,1,34] - 2 m[0,1,35] - 50000 c[0,8,-1.0]
   >= -49992
 R253: - m[0,0,32] + 2 m[0,0,33] + 6649 m[0,0,34] - 6646 m[0,0,35]
   - 6647 m[0,1,33] - 2 m[0,1,34] + 3 m[0,1,35] - 50000 c[0,8,-1.0]
   >= -56647
 R254: 3 m[0,0,32] + 3 m[0,0,33] + 7 m[0,0,34] + 7 m[0,0,35] + 4 m[0,1,33]
   - m[0,1,34] - m[0,1,35] - 50000 c[0,8,-1.0] >= -49995
 R255: 4 m[0,0,32] - 6 m[0,0,33] + 15 m[0,0,34] + 2 m[0,0,35] - m[0,1,32]
   - 8 m[0,1,33] + 16 m[0,1,34] + 6 m[0,1,35] - 50000 c[0,8,-1.0]
   >= -49999
 R256: 3 m[0,0,32] - 4 m[0,0,33] - 16 m[0,0,34] - 9 m[0,1,32]
   + 20 m[0,1,33] + 4 m[0,1,34] + 8 m[0,1,35] - 50000 c[0,8,-1.0]
   >= -50009
 R257: c[0,9,0.0] + c[0,9,-3.0] + c[0,9,-2.0] + c[0,9,-1.41504]
   + c[0,9,-1.0] = 1
 R258: - m[0,0,36] - m[0,0,37] - m[0,0,38] - m[0,0,39] - m[0,1,36]
   - m[0,1,37] - m[0,1,38] - m[0,1,39] - 50000 c[0,9,0.0] >= -50000
 R259: c[0,9,-3.0] = 0
 R260: - m[0,0,38] - m[0,0,39] - m[0,1,36] - m[0,1,37] - 50000 c[0,9,-2.0]
   >= -50003
 R261: m[0,0,38] + 2 m[0,1,36] + 3 m[0,1,37] - 50000 c[0,9,-2.0] >= -49997
 R262: 2 m[0,0,38] + 3 m[0,0,39] + 2 m[0,1,36] + m[0,1,37]
   - 50000 c[0,9,-2.0] >= -49996
 R263: c[0,9,-1.41504] = 0
 R264: - m[0,0,36] - 2 m[0,0,37] - 6649 m[0,0,38] + 6645 m[0,0,39]
   - 6645 m[0,1,36] - 4 m[0,1,37] - 2 m[0,1,38] - 3 m[0,1,39]
   - 50000 c[0,9,-1.0] >= -56656
 R265: - 4 m[0,0,36] - 7 m[0,0,37] + 2 m[0,0,38] - m[0,0,39] - m[0,1,36]
   + 2 m[0,1,37] - 6 m[0,1,38] - 6 m[0,1,39] - 50000 c[0,9,-1.0] >= -50018
 R266: 1898 m[0,0,36] + 2848 m[0,0,37] + 1901 m[0,0,38] - 6649 m[0,0,39]
   + 6647 m[0,1,36] - 5698 m[0,1,37] + 1899 m[0,1,38] + 2849 m[0,1,39]
   - 50000 c[0,9,-1.0] >= -50951
 R267: - m[0,0,36] + 11 m[0,0,37] + 5 m[0,0,38] + 9 m[0,1,36]
   + 11 m[0,1,37] + 5 m[0,1,38] - 2 m[0,1,39] - 50000 c[0,9,-1.0]
   >= -49992
 R268: - m[0,0,36] + 2 m[0,0,37] + 6649 m[0,0,38] - 6646 m[0,0,39]
   - 6647 m[0,1,37] - 2 m[0,1,38] + 3 m[0,1,39] - 50000 c[0,9,-1.0]
   >= -56647
 R269: 3 m[0,0,36] + 3 m[0,0,37] + 7 m[0,0,38] + 7 m[0,0,39] + 4 m[0,1,37]
   - m[0,1,38] - m[0,1,39] - 50000 c[0,9,-1.0] >= -49995
 R270: 4 m[0,0,36] - 6 m[0,0,37] + 15 m[0,0,38] + 2 m[0,0,39] - m[0,1,36]
   - 8 m[0,1,37] + 16 m[0,1,38] + 6 m[0,1,39] - 50000 c[0,9,-1.0]
   >= -49999
 R271: 3 m[0,0,36] - 4 m[0,0,37] - 16 m[0,0,38] - 9 m[0,1,36]
   + 20 m[0,1,37] + 4 m[0,1,38] + 8 m[0,1,39] - 50000 c[0,9,-1.0]
   >= -50009
 R272: c[0,10,0.0] + c[0,10,-3.0] + c[0,10,-2.0] + c[0,10,-1.41504]
   + c[0,10,-1.0] = 1
 R273: c[0,10,0.0] = 0
 R274: c[0,10,-3.0] = 0
 R275: m[0,0,41] + 3 m[0,0,42] + 2 m[0,1,41] - m[0,1,42] - 2 m[0,1,43]
   - 50000 c[0,10,-2.0] >= -50000
 R276: - m[0,0,41] - 3 m[0,0,42] + 2 m[0,1,41] - m[0,1,42] + 2 m[0,1,43]
   - 50000 c[0,10,-2.0] >= -50002
 R277: m[0,0,41] - 3 m[0,0,42] - 2 m[0,1,41] + m[0,1,42] - 2 m[0,1,43]
   - 50000 c[0,10,-2.0] >= -50004
 R278: - m[0,0,41] + 3 m[0,0,42] - 2 m[0,1,41] + m[0,1,42] + 2 m[0,1,43]
   - 50000 c[0,10,-2.0] >= -50000
 R279: c[0,10,-1.41504] = 0
 R280: c[0,10,-1.0] = 0
 R281: c[0,11,0.0] + c[0,11,-3.0] + c[0,11,-2.0] + c[0,11,-1.41504]
   + c[0,11,-1.0] = 1
 R282: - m[0,0,44] - m[0,0,45] - m[0,0,46] - m[0,0,47] - m[0,1,44]
   - m[0,1,45] - m[0,1,46] - m[0,1,47] - 50000 c[0,11,0.0] >= -50000
 R283: c[0,11,-3.0] = 0
 R284: - m[0,0,46] - m[0,0,47] - m[0,1,44] - m[0,1,45] - 50000 c[0,11,-2.0]
   >= -50003
 R285: m[0,0,46] + 2 m[0,1,44] + 3 m[0,1,45] - 50000 c[0,11,-2.0]
   >= -49997
 R286: 2 m[0,0,46] + 3 m[0,0,47] + 2 m[0,1,44] + m[0,1,45]
   - 50000 c[0,11,-2.0] >= -49996
 R287: c[0,11,-1.41504] = 0
 R288: - m[0,0,44] - 2 m[0,0,45] - 6649 m[0,0,46] + 6645 m[0,0,47]
   - 6645 m[0,1,44] - 4 m[0,1,45] - 2 m[0,1,46] - 3 m[0,1,47]
   - 50000 c[0,11,-1.0] >= -56656
 R289: - 4 m[0,0,44] - 7 m[0,0,45] + 2 m[0,0,46] - m[0,0,47] - m[0,1,44]
   + 2 m[0,1,45] - 6 m[0,1,46] - 6 m[0,1,47] - 50000 c[0,11,-1.0]
   >= -50018
 R290: 1898 m[0,0,44] + 2848 m[0,0,45] + 1901 m[0,0,46] - 6649 m[0,0,47]
   + 6647 m[0,1,44] - 5698 m[0,1,45] + 1899 m[0,1,46] + 2849 m[0,1,47]
   - 50000 c[0,11,-1.0] >= -50951
 R291: - m[0,0,44] + 11 m[0,0,45] + 5 m[0,0,46] + 9 m[0,1,44]
   + 11 m[0,1,45] + 5 m[0,1,46] - 2 m[0,1,47] - 50000 c[0,11,-1.0]
   >= -49992
 R292: - m[0,0,44] + 2 m[0,0,45] + 6649 m[0,0,46] - 6646 m[0,0,47]
   - 6647 m[0,1,45] - 2 m[0,1,46] + 3 m[0,1,47] - 50000 c[0,11,-1.0]
   >= -56647
 R293: 3 m[0,0,44] + 3 m[0,0,45] + 7 m[0,0,46] + 7 m[0,0,47] + 4 m[0,1,45]
   - m[0,1,46] - m[0,1,47] - 50000 c[0,11,-1.0] >= -49995
 R294: 4 m[0,0,44] - 6 m[0,0,45] + 15 m[0,0,46] + 2 m[0,0,47] - m[0,1,44]
   - 8 m[0,1,45] + 16 m[0,1,46] + 6 m[0,1,47] - 50000 c[0,11,-1.0]
   >= -49999
 R295: 3 m[0,0,44] - 4 m[0,0,45] - 16 m[0,0,46] - 9 m[0,1,44]
   + 20 m[0,1,45] + 4 m[0,1,46] + 8 m[0,1,47] - 50000 c[0,11,-1.0]
   >= -50009
 R296: c[0,12,0.0] + c[0,12,-3.0] + c[0,12,-2.0] + c[0,12,-1.41504]
   + c[0,12,-1.0] = 1
 R297: - m[0,0,48] - m[0,0,49] - m[0,0,50] - m[0,0,51] - m[0,1,48]
   - m[0,1,49] - m[0,1,50] - m[0,1,51] - 50000 c[0,12,0.0] >= -50000
 R298: c[0,12,-3.0] = 0
 R299: - m[0,0,50] - m[0,0,51] - m[0,1,48] - m[0,1,49] - 50000 c[0,12,-2.0]
   >= -50003
 R300: m[0,0,50] + 2 m[0,1,48] + 3 m[0,1,49] - 50000 c[0,12,-2.0]
   >= -49997
 R301: 2 m[0,0,50] + 3 m[0,0,51] + 2 m[0,1,48] + m[0,1,49]
   - 50000 c[0,12,-2.0] >= -49996
 R302: c[0,12,-1.41504] = 0
 R303: - m[0,0,48] - 2 m[0,0,49] - 6649 m[0,0,50] + 6645 m[0,0,51]
   - 6645 m[0,1,48] - 4 m[0,1,49] - 2 m[0,1,50] - 3 m[0,1,51]
   - 50000 c[0,12,-1.0] >= -56656
 R304: - 4 m[0,0,48] - 7 m[0,0,49] + 2 m[0,0,50] - m[0,0,51] - m[0,1,48]
   + 2 m[0,1,49] - 6 m[0,1,50] - 6 m[0,1,51] - 50000 c[0,12,-1.0]
   >= -50018
 R305: 1898 m[0,0,48] + 2848 m[0,0,49] + 1901 m[0,0,50] - 6649 m[0,0,51]
   + 6647 m[0,1,48] - 5698 m[0,1,49] + 1899 m[0,1,50] + 2849 m[0,1,51]
   - 50000 c[0,12,-1.0] >= -50951
 R306: - m[0,0,48] + 11 m[0,0,49] + 5 m[0,0,50] + 9 m[0,1,48]
   + 11 m[0,1,49] + 5 m[0,1,50] - 2 m[0,1,51] - 50000 c[0,12,-1.0]
   >= -49992
 R307: - m[0,0,48] + 2 m[0,0,49] + 6649 m[0,0,50] - 6646 m[0,0,51]
   - 6647 m[0,1,49] - 2 m[0,1,50] + 3 m[0,1,51] - 50000 c[0,12,-1.0]
   >= -56647
 R308: 3 m[0,0,48] + 3 m[0,0,49] + 7 m[0,0,50] + 7 m[0,0,51] + 4 m[0,1,49]
   - m[0,1,50] - m[0,1,51] - 50000 c[0,12,-1.0] >= -49995
 R309: 4 m[0,0,48] - 6 m[0,0,49] + 15 m[0,0,50] + 2 m[0,0,51] - m[0,1,48]
   - 8 m[0,1,49] + 16 m[0,1,50] + 6 m[0,1,51] - 50000 c[0,12,-1.0]
   >= -49999
 R310: 3 m[0,0,48] - 4 m[0,0,49] - 16 m[0,0,50] - 9 m[0,1,48]
   + 20 m[0,1,49] + 4 m[0,1,50] + 8 m[0,1,51] - 50000 c[0,12,-1.0]
   >= -50009
 R311: c[0,13,0.0] + c[0,13,-3.0] + c[0,13,-2.0] + c[0,13,-1.41504]
   + c[0,13,-1.0] = 1
 R312: - m[0,0,52] - m[0,0,53] - m[0,0,54] - m[0,0,55] - m[0,1,52]
   - m[0,1,53] - m[0,1,54] - m[0,1,55] - 50000 c[0,13,0.0] >= -50000
 R313: c[0,13,-3.0] = 0
 R314: - m[0,0,54] - m[0,0,55] - m[0,1,52] - m[0,1,53] - 50000 c[0,13,-2.0]
   >= -50003
 R315: m[0,0,54] + 2 m[0,1,52] + 3 m[0,1,53] - 50000 c[0,13,-2.0]
   >= -49997
 R316: 2 m[0,0,54] + 3 m[0,0,55] + 2 m[0,1,52] + m[0,1,53]
   - 50000 c[0,13,-2.0] >= -49996
 R317: c[0,13,-1.41504] = 0
 R318: - m[0,0,52] - 2 m[0,0,53] - 6649 m[0,0,54] + 6645 m[0,0,55]
   - 6645 m[0,1,52] - 4 m[0,1,53] - 2 m[0,1,54] - 3 m[0,1,55]
   - 50000 c[0,13,-1.0] >= -56656
 R319: - 4 m[0,0,52] - 7 m[0,0,53] + 2 m[0,0,54] - m[0,0,55] - m[0,1,52]
   + 2 m[0,1,53] - 6 m[0,1,54] - 6 m[0,1,55] - 50000 c[0,13,-1.0]
   >= -50018
 R320: 1898 m[0,0,52] + 2848 m[0,0,53] + 1901 m[0,0,54] - 6649 m[0,0,55]
   + 6647 m[0,1,52] - 5698 m[0,1,53] + 1899 m[0,1,54] + 2849 m[0,1,55]
   - 50000 c[0,13,-1.0] >= -50951
 R321: - m[0,0,52] + 11 m[0,0,53] + 5 m[0,0,54] + 9 m[0,1,52]
   + 11 m[0,1,53] + 5 m[0,1,54] - 2 m[0,1,55] - 50000 c[0,13,-1.0]
   >= -49992
 R322: - m[0,0,52] + 2 m[0,0,53] + 6649 m[0,0,54] - 6646 m[0,0,55]
   - 6647 m[0,1,53] - 2 m[0,1,54] + 3 m[0,1,55] - 50000 c[0,13,-1.0]
   >= -56647
 R323: 3 m[0,0,52] + 3 m[0,0,53] + 7 m[0,0,54] + 7 m[0,0,55] + 4 m[0,1,53]
   - m[0,1,54] - m[0,1,55] - 50000 c[0,13,-1.0] >= -49995
 R324: 4 m[0,0,52] - 6 m[0,0,53] + 15 m[0,0,54] + 2 m[0,0,55] - m[0,1,52]
   - 8 m[0,1,53] + 16 m[0,1,54] + 6 m[0,1,55] - 50000 c[0,13,-1.0]
   >= -49999
 R325: 3 m[0,0,52] - 4 m[0,0,53] - 16 m[0,0,54] - 9 m[0,1,52]
   + 20 m[0,1,53] + 4 m[0,1,54] + 8 m[0,1,55] - 50000 c[0,13,-1.0]
   >= -50009
 R326: c[0,14,0.0] + c[0,14,-3.0] + c[0,14,-2.0] + c[0,14,-1.41504]
   + c[0,14,-1.0] = 1
 R327: - m[0,0,56] - m[0,0,57] - m[0,0,58] - m[0,0,59] - m[0,1,56]
   - m[0,1,57] - m[0,1,58] - m[0,1,59] - 50000 c[0,14,0.0] >= -50000
 R328: c[0,14,-3.0] = 0
 R329: - m[0,0,58] - m[0,0,59] - m[0,1,56] - m[0,1,57] - 50000 c[0,14,-2.0]
   >= -50003
 R330: m[0,0,58] + 2 m[0,1,56] + 3 m[0,1,57] - 50000 c[0,14,-2.0]
   >= -49997
 R331: 2 m[0,0,58] + 3 m[0,0,59] + 2 m[0,1,56] + m[0,1,57]
   - 50000 c[0,14,-2.0] >= -49996
 R332: c[0,14,-1.41504] = 0
 R333: - m[0,0,56] - 2 m[0,0,57] - 6649 m[0,0,58] + 6645 m[0,0,59]
   - 6645 m[0,1,56] - 4 m[0,1,57] - 2 m[0,1,58] - 3 m[0,1,59]
   - 50000 c[0,14,-1.0] >= -56656
 R334: - 4 m[0,0,56] - 7 m[0,0,57] + 2 m[0,0,58] - m[0,0,59] - m[0,1,56]
   + 2 m[0,1,57] - 6 m[0,1,58] - 6 m[0,1,59] - 50000 c[0,14,-1.0]
   >= -50018
 R335: 1898 m[0,0,56] + 2848 m[0,0,57] + 1901 m[0,0,58] - 6649 m[0,0,59]
   + 6647 m[0,1,56] - 5698 m[0,1,57] + 1899 m[0,1,58] + 2849 m[0,1,59]
   - 50000 c[0,14,-1.0] >= -50951
 R336: - m[0,0,56] + 11 m[0,0,57] + 5 m[0,0,58] + 9 m[0,1,56]
   + 11 m[0,1,57] + 5 m[0,1,58] - 2 m[0,1,59] - 50000 c[0,14,-1.0]
   >= -49992
 R337: - m[0,0,56] + 2 m[0,0,57] + 6649 m[0,0,58] - 6646 m[0,0,59]
   - 6647 m[0,1,57] - 2 m[0,1,58] + 3 m[0,1,59] - 50000 c[0,14,-1.0]
   >= -56647
 R338: 3 m[0,0,56] + 3 m[0,0,57] + 7 m[0,0,58] + 7 m[0,0,59] + 4 m[0,1,57]
   - m[0,1,58] - m[0,1,59] - 50000 c[0,14,-1.0] >= -49995
 R339: 4 m[0,0,56] - 6 m[0,0,57] + 15 m[0,0,58] + 2 m[0,0,59] - m[0,1,56]
   - 8 m[0,1,57] + 16 m[0,1,58] + 6 m[0,1,59] - 50000 c[0,14,-1.0]
   >= -49999
 R340: 3 m[0,0,56] - 4 m[0,0,57] - 16 m[0,0,58] - 9 m[0,1,56]
   + 20 m[0,1,57] + 4 m[0,1,58] + 8 m[0,1,59] - 50000 c[0,14,-1.0]
   >= -50009
 R341: c[0,15,0.0] + c[0,15,-3.0] + c[0,15,-2.0] + c[0,15,-1.41504]
   + c[0,15,-1.0] = 1
 R342: - m[0,0,60] - m[0,0,61] - m[0,0,62] - m[0,0,63] - m[0,1,60]
   - m[0,1,61] - m[0,1,62] - m[0,1,63] - 50000 c[0,15,0.0] >= -50000
 R343: c[0,15,-3.0] = 0
 R344: - m[0,0,62] - m[0,0,63] - m[0,1,60] - m[0,1,61] - 50000 c[0,15,-2.0]
   >= -50003
 R345: m[0,0,62] + 2 m[0,1,60] + 3 m[0,1,61] - 50000 c[0,15,-2.0]
   >= -49997
 R346: 2 m[0,0,62] + 3 m[0,0,63] + 2 m[0,1,60] + m[0,1,61]
   - 50000 c[0,15,-2.0] >= -49996
 R347: c[0,15,-1.41504] = 0
 R348: - m[0,0,60] - 2 m[0,0,61] - 6649 m[0,0,62] + 6645 m[0,0,63]
   - 6645 m[0,1,60] - 4 m[0,1,61] - 2 m[0,1,62] - 3 m[0,1,63]
   - 50000 c[0,15,-1.0] >= -56656
 R349: - 4 m[0,0,60] - 7 m[0,0,61] + 2 m[0,0,62] - m[0,0,63] - m[0,1,60]
   + 2 m[0,1,61] - 6 m[0,1,62] - 6 m[0,1,63] - 50000 c[0,15,-1.0]
   >= -50018
 R350: 1898 m[0,0,60] + 2848 m[0,0,61] + 1901 m[0,0,62] - 6649 m[0,0,63]
   + 6647 m[0,1,60] - 5698 m[0,1,61] + 1899 m[0,1,62] + 2849 m[0,1,63]
   - 50000 c[0,15,-1.0] >= -50951
 R351: - m[0,0,60] + 11 m[0,0,61] + 5 m[0,0,62] + 9 m[0,1,60]
   + 11 m[0,1,61] + 5 m[0,1,62] - 2 m[0,1,63] - 50000 c[0,15,-1.0]
   >= -49992
 R352: - m[0,0,60] + 2 m[0,0,61] + 6649 m[0,0,62] - 6646 m[0,0,63]
   - 6647 m[0,1,61] - 2 m[0,1,62] + 3 m[0,1,63] - 50000 c[0,15,-1.0]
   >= -56647
 R353: 3 m[0,0,60] + 3 m[0,0,61] + 7 m[0,0,62] + 7 m[0,0,63] + 4 m[0,1,61]
   - m[0,1,62] - m[0,1,63] - 50000 c[0,15,-1.0] >= -49995
 R354: 4 m[0,0,60] - 6 m[0,0,61] + 15 m[0,0,62] + 2 m[0,0,63] - m[0,1,60]
   - 8 m[0,1,61] + 16 m[0,1,62] + 6 m[0,1,63] - 50000 c[0,15,-1.0]
   >= -49999
 R355: 3 m[0,0,60] - 4 m[0,0,61] - 16 m[0,0,62] - 9 m[0,1,60]
   + 20 m[0,1,61] + 4 m[0,1,62] + 8 m[0,1,63] - 50000 c[0,15,-1.0]
   >= -50009
 R356: c[1,0,0.0] + c[1,0,-3.0] + c[1,0,-2.0] + c[1,0,-1.41504]
   + c[1,0,-1.0] = 1
 R357: - m[1,0,0] - m[1,0,1] - m[1,0,2] - m[1,0,3] - m[1,1,0] - m[1,1,1]
   - m[1,1,2] - m[1,1,3] - 50000 c[1,0,0.0] >= -50000
 R358: c[1,0,-3.0] = 0
 R359: - m[1,0,2] - m[1,0,3] - m[1,1,0] - m[1,1,1] - 50000 c[1,0,-2.0]
   >= -50003
 R360: m[1,0,2] + 2 m[1,1,0] + 3 m[1,1,1] - 50000 c[1,0,-2.0] >= -49997
 R361: 2 m[1,0,2] + 3 m[1,0,3] + 2 m[1,1,0] + m[1,1,1] - 50000 c[1,0,-2.0]
   >= -49996
 R362: c[1,0,-1.41504] = 0
 R363: - m[1,0,0] - 2 m[1,0,1] - 6649 m[1,0,2] + 6645 m[1,0,3]
   - 6645 m[1,1,0] - 4 m[1,1,1] - 2 m[1,1,2] - 3 m[1,1,3]
   - 50000 c[1,0,-1.0] >= -56656
 R364: - 4 m[1,0,0] - 7 m[1,0,1] + 2 m[1,0,2] - m[1,0,3] - m[1,1,0]
   + 2 m[1,1,1] - 6 m[1,1,2] - 6 m[1,1,3] - 50000 c[1,0,-1.0] >= -50018
 R365: 1898 m[1,0,0] + 2848 m[1,0,1] + 1901 m[1,0,2] - 6649 m[1,0,3]
   + 6647 m[1,1,0] - 5698 m[1,1,1] + 1899 m[1,1,2] + 2849 m[1,1,3]
   - 50000 c[1,0,-1.0] >= -50951
 R366: - m[1,0,0] + 11 m[1,0,1] + 5 m[1,0,2] + 9 m[1,1,0] + 11 m[1,1,1]
   + 5 m[1,1,2] - 2 m[1,1,3] - 50000 c[1,0,-1.0] >= -49992
 R367: - m[1,0,0] + 2 m[1,0,1] + 6649 m[1,0,2] - 6646 m[1,0,3]
   - 6647 m[1,1,1] - 2 m[1,1,2] + 3 m[1,1,3] - 50000 c[1,0,-1.0] >= -56647
 R368: 3 m[1,0,0] + 3 m[1,0,1] + 7 m[1,0,2] + 7 m[1,0,3] + 4 m[1,1,1]
   - m[1,1,2] - m[1,1,3] - 50000 c[1,0,-1.0] >= -49995
 R369: 4 m[1,0,0] - 6 m[1,0,1] + 15 m[1,0,2] + 2 m[1,0,3] - m[1,1,0]
   - 8 m[1,1,1] + 16 m[1,1,2] + 6 m[1,1,3] - 50000 c[1,0,-1.0] >= -49999
 R370: 3 m[1,0,0] - 4 m[1,0,1] - 16 m[1,0,2] - 9 m[1,1,0] + 20 m[1,1,1]
   + 4 m[1,1,2] + 8 m[1,1,3] - 50000 c[1,0,-1.0] >= -50009
 R371: c[1,1,0.0] + c[1,1,-3.0] + c[1,1,-2.0] + c[1,1,-1.41504]
   + c[1,1,-1.0] = 1
 R372: - m[1,0,4] - m[1,0,5] - m[1,0,6] - m[1,0,7] - m[1,1,4] - m[1,1,5]
   - m[1,1,6] - m[1,1,7] - 50000 c[1,1,0.0] >= -50000
 R373: c[1,1,-3.0] = 0
 R374: - m[1,0,6] - m[1,0,7] - m[1,1,4] - m[1,1,5] - 50000 c[1,1,-2.0]
   >= -50003
 R375: m[1,0,6] + 2 m[1,1,4] + 3 m[1,1,5] - 50000 c[1,1,-2.0] >= -49997
 R376: 2 m[1,0,6] + 3 m[1,0,7] + 2 m[1,1,4] + m[1,1,5] - 50000 c[1,1,-2.0]
   >= -49996
 R377: c[1,1,-1.41504] = 0
 R378: - m[1,0,4] - 2 m[1,0,5] - 6649 m[1,0,6] + 6645 m[1,0,7]
   - 6645 m[1,1,4] - 4 m[1,1,5] - 2 m[1,1,6] - 3 m[1,1,7]
   - 50000 c[1,1,-1.0] >= -56656
 R379: - 4 m[1,0,4] - 7 m[1,0,5] + 2 m[1,0,6] - m[1,0,7] - m[1,1,4]
   + 2 m[1,1,5] - 6 m[1,1,6] - 6 m[1,1,7] - 50000 c[1,1,-1.0] >= -50018
 R380: 1898 m[1,0,4] + 2848 m[1,0,5] + 1901 m[1,0,6] - 6649 m[1,0,7]
   + 6647 m[1,1,4] - 5698 m[1,1,5] + 1899 m[1,1,6] + 2849 m[1,1,7]
   - 50000 c[1,1,-1.0] >= -50951
 R381: - m[1,0,4] + 11 m[1,0,5] + 5 m[1,0,6] + 9 m[1,1,4] + 11 m[1,1,5]
   + 5 m[1,1,6] - 2 m[1,1,7] - 50000 c[1,1,-1.0] >= -49992
 R382: - m[1,0,4] + 2 m[1,0,5] + 6649 m[1,0,6] - 6646 m[1,0,7]
   - 6647 m[1,1,5] - 2 m[1,1,6] + 3 m[1,1,7] - 50000 c[1,1,-1.0] >= -56647
 R383: 3 m[1,0,4] + 3 m[1,0,5] + 7 m[1,0,6] + 7 m[1,0,7] + 4 m[1,1,5]
   - m[1,1,6] - m[1,1,7] - 50000 c[1,1,-1.0] >= -49995
 R384: 4 m[1,0,4] - 6 m[1,0,5] + 15 m[1,0,6] + 2 m[1,0,7] - m[1,1,4]
   - 8 m[1,1,5] + 16 m[1,1,6] + 6 m[1,1,7] - 50000 c[1,1,-1.0] >= -49999
 R385: 3 m[1,0,4] - 4 m[1,0,5] - 16 m[1,0,6] - 9 m[1,1,4] + 20 m[1,1,5]
   + 4 m[1,1,6] + 8 m[1,1,7] - 50000 c[1,1,-1.0] >= -50009
 R386: c[1,2,0.0] + c[1,2,-3.0] + c[1,2,-2.0] + c[1,2,-1.41504]
   + c[1,2,-1.0] = 1
 R387: - m[1,0,8] - m[1,0,9] - m[1,0,10] - m[1,0,11] - m[1,1,8] - m[1,1,9]
   - m[1,1,10] - m[1,1,11] - 50000 c[1,2,0.0] >= -50000
 R388: c[1,2,-3.0] = 0
 R389: - m[1,0,10] - m[1,0,11] - m[1,1,8] - m[1,1,9] - 50000 c[1,2,-2.0]
   >= -50003
 R390: m[1,0,10] + 2 m[1,1,8] + 3 m[1,1,9] - 50000 c[1,2,-2.0] >= -49997
 R391: 2 m[1,0,10] + 3 m[1,0,11] + 2 m[1,1,8] + m[1,1,9]
   - 50000 c[1,2,-2.0] >= -49996
 R392: c[1,2,-1.41504] = 0
 R393: - m[1,0,8] - 2 m[1,0,9] - 6649 m[1,0,10] + 6645 m[1,0,11]
   - 6645 m[1,1,8] - 4 m[1,1,9] - 2 m[1,1,10] - 3 m[1,1,11]
   - 50000 c[1,2,-1.0] >= -56656
 R394: - 4 m[1,0,8] - 7 m[1,0,9] + 2 m[1,0,10] - m[1,0,11] - m[1,1,8]
   + 2 m[1,1,9] - 6 m[1,1,10] - 6 m[1,1,11] - 50000 c[1,2,-1.0] >= -50018
 R395: 1898 m[1,0,8] + 2848 m[1,0,9] + 1901 m[1,0,10] - 6649 m[1,0,11]
   + 6647 m[1,1,8] - 5698 m[1,1,9] + 1899 m[1,1,10] + 2849 m[1,1,11]
   - 50000 c[1,2,-1.0] >= -50951
 R396: - m[1,0,8] + 11 m[1,0,9] + 5 m[1,0,10] + 9 m[1,1,8] + 11 m[1,1,9]
   + 5 m[1,1,10] - 2 m[1,1,11] - 50000 c[1,2,-1.0] >= -49992
 R397: - m[1,0,8] + 2 m[1,0,9] + 6649 m[1,0,10] - 6646 m[1,0,11]
   - 6647 m[1,1,9] - 2 m[1,1,10] + 3 m[1,1,11] - 50000 c[1,2,-1.0]
   >= -56647
 R398: 3 m[1,0,8] + 3 m[1,0,9] + 7 m[1,0,10] + 7 m[1,0,11] + 4 m[1,1,9]
   - m[1,1,10] - m[1,1,11] - 50000 c[1,2,-1.0] >= -49995
 R399: 4 m[1,0,8] - 6 m[1,0,9] + 15 m[1,0,10] + 2 m[1,0,11] - m[1,1,8]
   - 8 m[1,1,9] + 16 m[1,1,10] + 6 m[1,1,11] - 50000 c[1,2,-1.0] >= -49999
 R400: 3 m[1,0,8] - 4 m[1,0,9] - 16 m[1,0,10] - 9 m[1,1,8] + 20 m[1,1,9]
   + 4 m[1,1,10] + 8 m[1,1,11] - 50000 c[1,2,-1.0] >= -50009
 R401: c[1,3,0.0] + c[1,3,-3.0] + c[1,3,-2.0] + c[1,3,-1.41504]
   + c[1,3,-1.0] = 1
 R402: - m[1,0,12] - m[1,0,13] - m[1,0,14] - m[1,0,15] - m[1,1,12]
   - m[1,1,13] - m[1,1,14] - m[1,1,15] - 50000 c[1,3,0.0] >= -50000
 R403: c[1,3,-3.0] = 0
 R404: - m[1,0,14] - m[1,0,15] - m[1,1,12] - m[1,1,13] - 50000 c[1,3,-2.0]
   >= -50003
 R405: m[1,0,14] + 2 m[1,1,12] + 3 m[1,1,13] - 50000 c[1,3,-2.0] >= -49997
 R406: 2 m[1,0,14] + 3 m[1,0,15] + 2 m[1,1,12] + m[1,1,13]
   - 50000 c[1,3,-2.0] >= -49996
 R407: c[1,3,-1.41504] = 0
 R408: - m[1,0,12] - 2 m[1,0,13] - 6649 m[1,0,14] + 6645 m[1,0,15]
   - 6645 m[1,1,12] - 4 m[1,1,13] - 2 m[1,1,14] - 3 m[1,1,15]
   - 50000 c[1,3,-1.0] >= -56656
 R409: - 4 m[1,0,12] - 7 m[1,0,13] + 2 m[1,0,14] - m[1,0,15] - m[1,1,12]
   + 2 m[1,1,13] - 6 m[1,1,14] - 6 m[1,1,15] - 50000 c[1,3,-1.0] >= -50018
 R410: 1898 m[1,0,12] + 2848 m[1,0,13] + 1901 m[1,0,14] - 6649 m[1,0,15]
   + 6647 m[1,1,12] - 5698 m[1,1,13] + 1899 m[1,1,14] + 2849 m[1,1,15]
   - 50000 c[1,3,-1.0] >= -50951
 R411: - m[1,0,12] + 11 m[1,0,13] + 5 m[1,0,14] + 9 m[1,1,12]
   + 11 m[1,1,13] + 5 m[1,1,14] - 2 m[1,1,15] - 50000 c[1,3,-1.0]
   >= -49992
 R412: - m[1,0,12] + 2 m[1,0,13] + 6649 m[1,0,14] - 6646 m[1,0,15]
   - 6647 m[1,1,13] - 2 m[1,1,14] + 3 m[1,1,15] - 50000 c[1,3,-1.0]
   >= -56647
 R413: 3 m[1,0,12] + 3 m[1,0,13] + 7 m[1,0,14] + 7 m[1,0,15] + 4 m[1,1,13]
   - m[1,1,14] - m[1,1,15] - 50000 c[1,3,-1.0] >= -49995
 R414: 4 m[1,0,12] - 6 m[1,0,13] + 15 m[1,0,14] + 2 m[1,0,15] - m[1,1,12]
   - 8 m[1,1,13] + 16 m[1,1,14] + 6 m[1,1,15] - 50000 c[1,3,-1.0]
   >= -49999
 R415: 3 m[1,0,12] - 4 m[1,0,13] - 16 m[1,0,14] - 9 m[1,1,12]
   + 20 m[1,1,13] + 4 m[1,1,14] + 8 m[1,1,15] - 50000 c[1,3,-1.0]
   >= -50009
 R416: c[1,4,0.0] + c[1,4,-3.0] + c[1,4,-2.0] + c[1,4,-1.41504]
   + c[1,4,-1.0] = 1
 R417: - m[1,0,16] - m[1,0,17] - m[1,0,18] - m[1,0,19] - m[1,1,16]
   - m[1,1,17] - m[1,1,18] - m[1,1,19] - 50000 c[1,4,0.0] >= -50000
 R418: c[1,4,-3.0] = 0
 R419: - m[1,0,18] - m[1,0,19] - m[1,1,16] - m[1,1,17] - 50000 c[1,4,-2.0]
   >= -50003
 R420: m[1,0,18] + 2 m[1,1,16] + 3 m[1,1,17] - 50000 c[1,4,-2.0] >= -49997
 R421: 2 m[1,0,18] + 3 m[1,0,19] + 2 m[1,1,16] + m[1,1,17]
   - 50000 c[1,4,-2.0] >= -49996
 R422: c[1,4,-1.41504] = 0
 R423: - m[1,0,16] - 2 m[1,0,17] - 6649 m[1,0,18] + 6645 m[1,0,19]
   - 6645 m[1,1,16] - 4 m[1,1,17] - 2 m[1,1,18] - 3 m[1,1,19]
   - 50000 c[1,4,-1.0] >= -56656
 R424: - 4 m[1,0,16] - 7 m[1,0,17] + 2 m[1,0,18] - m[1,0,19] - m[1,1,16]
   + 2 m[1,1,17] - 6 m[1,1,18] - 6 m[1,1,19] - 50000 c[1,4,-1.0] >= -50018
 R425: 1898 m[1,0,16] + 2848 m[1,0,17] + 1901 m[1,0,18] - 6649 m[1,0,19]
   + 6647 m[1,1,16] - 5698 m[1,1,17] + 1899 m[1,1,18] + 2849 m[1,1,19]
   - 50000 c[1,4,-1.0] >= -50951
 R426: - m[1,0,16] + 11 m[1,0,17] + 5 m[1,0,18] + 9 m[1,1,16]
   + 11 m[1,1,17] + 5 m[1,1,18] - 2 m[1,1,19] - 50000 c[1,4,-1.0]
   >= -49992
 R427: - m[1,0,16] + 2 m[1,0,17] + 6649 m[1,0,18] - 6646 m[1,0,19]
   - 6647 m[1,1,17] - 2 m[1,1,18] + 3 m[1,1,19] - 50000 c[1,4,-1.0]
   >= -56647
 R428: 3 m[1,0,16] + 3 m[1,0,17] + 7 m[1,0,18] + 7 m[1,0,19] + 4 m[1,1,17]
   - m[1,1,18] - m[1,1,19] - 50000 c[1,4,-1.0] >= -49995
 R429: 4 m[1,0,16] - 6 m[1,0,17] + 15 m[1,0,18] + 2 m[1,0,19] - m[1,1,16]
   - 8 m[1,1,17] + 16 m[1,1,18] + 6 m[1,1,19] - 50000 c[1,4,-1.0]
   >= -49999
 R430: 3 m[1,0,16] - 4 m[1,0,17] - 16 m[1,0,18] - 9 m[1,1,16]
   + 20 m[1,1,17] + 4 m[1,1,18] + 8 m[1,1,19] - 50000 c[1,4,-1.0]
   >= -50009
 R431: c[1,5,0.0] + c[1,5,-3.0] + c[1,5,-2.0] + c[1,5,-1.41504]
   + c[1,5,-1.0] = 1
 R432: - m[1,0,20] - m[1,0,21] - m[1,0,22] - m[1,0,23] - m[1,1,20]
   - m[1,1,21] - m[1,1,22] - m[1,1,23] - 50000 c[1,5,0.0] >= -50000
 R433: c[1,5,-3.0] = 0
 R434: - m[1,0,22] - m[1,0,23] - m[1,1,20] - m[1,1,21] - 50000 c[1,5,-2.0]
   >= -50003
 R435: m[1,0,22] + 2 m[1,1,20] + 3 m[1,1,21] - 50000 c[1,5,-2.0] >= -49997
 R436: 2 m[1,0,22] + 3 m[1,0,23] + 2 m[1,1,20] + m[1,1,21]
   - 50000 c[1,5,-2.0] >= -49996
 R437: c[1,5,-1.41504] = 0
 R438: - m[1,0,20] - 2 m[1,0,21] - 6649 m[1,0,22] + 6645 m[1,0,23]
   - 6645 m[1,1,20] - 4 m[1,1,21] - 2 m[1,1,22] - 3 m[1,1,23]
   - 50000 c[1,5,-1.0] >= -56656
 R439: - 4 m[1,0,20] - 7 m[1,0,21] + 2 m[1,0,22] - m[1,0,23] - m[1,1,20]
   + 2 m[1,1,21] - 6 m[1,1,22] - 6 m[1,1,23] - 50000 c[1,5,-1.0] >= -50018
 R440: 1898 m[1,0,20] + 2848 m[1,0,21] + 1901 m[1,0,22] - 6649 m[1,0,23]
   + 6647 m[1,1,20] - 5698 m[1,1,21] + 1899 m[1,1,22] + 2849 m[1,1,23]
   - 50000 c[1,5,-1.0] >= -50951
 R441: - m[1,0,20] + 11 m[1,0,21] + 5 m[1,0,22] + 9 m[1,1,20]
   + 11 m[1,1,21] + 5 m[1,1,22] - 2 m[1,1,23] - 50000 c[1,5,-1.0]
   >= -49992
 R442: - m[1,0,20] + 2 m[1,0,21] + 6649 m[1,0,22] - 6646 m[1,0,23]
   - 6647 m[1,1,21] - 2 m[1,1,22] + 3 m[1,1,23] - 50000 c[1,5,-1.0]
   >= -56647
 R443: 3 m[1,0,20] + 3 m[1,0,21] + 7 m[1,0,22] + 7 m[1,0,23] + 4 m[1,1,21]
   - m[1,1,22] - m[1,1,23] - 50000 c[1,5,-1.0] >= -49995
 R444: 4 m[1,0,20] - 6 m[1,0,21] + 15 m[1,0,22] + 2 m[1,0,23] - m[1,1,20]
   - 8 m[1,1,21] + 16 m[1,1,22] + 6 m[1,1,23] - 50000 c[1,5,-1.0]
   >= -49999
 R445: 3 m[1,0,20] - 4 m[1,0,21] - 16 m[1,0,22] - 9 m[1,1,20]
   + 20 m[1,1,21] + 4 m[1,1,22] + 8 m[1,1,23] - 50000 c[1,5,-1.0]
   >= -50009
 R446: c[1,6,0.0] + c[1,6,-3.0] + c[1,6,-2.0] + c[1,6,-1.41504]
   + c[1,6,-1.0] = 1
 R447: - m[1,0,24] - m[1,0,25] - m[1,0,26] - m[1,0,27] - m[1,1,24]
   - m[1,1,25] - m[1,1,26] - m[1,1,27] - 50000 c[1,6,0.0] >= -50000
 R448: c[1,6,-3.0] = 0
 R449: - m[1,0,26] - m[1,0,27] - m[1,1,24] - m[1,1,25] - 50000 c[1,6,-2.0]
   >= -50003
 R450: m[1,0,26] + 2 m[1,1,24] + 3 m[1,1,25] - 50000 c[1,6,-2.0] >= -49997
 R451: 2 m[1,0,26] + 3 m[1,0,27] + 2 m[1,1,24] + m[1,1,25]
   - 50000 c[1,6,-2.0] >= -49996
 R452: c[1,6,-1.41504] = 0
 R453: - m[1,0,24] - 2 m[1,0,25] - 6649 m[1,0,26] + 6645 m[1,0,27]
   - 6645 m[1,1,24] - 4 m[1,1,25] - 2 m[1,1,26] - 3 m[1,1,27]
   - 50000 c[1,6,-1.0] >= -56656
 R454: - 4 m[1,0,24] - 7 m[1,0,25] + 2 m[1,0,26] - m[1,0,27] - m[1,1,24]
   + 2 m[1,1,25] - 6 m[1,1,26] - 6 m[1,1,27] - 50000 c[1,6,-1.0] >= -50018
 R455: 1898 m[1,0,24] + 2848 m[1,0,25] + 1901 m[1,0,26] - 6649 m[1,0,27]
   + 6647 m[1,1,24] - 5698 m[1,1,25] + 1899 m[1,1,26] + 2849 m[1,1,27]
   - 50000 c[1,6,-1.0] >= -50951
 R456: - m[1,0,24] + 11 m[1,0,25] + 5 m[1,0,26] + 9 m[1,1,24]
   + 11 m[1,1,25] + 5 m[1,1,26] - 2 m[1,1,27] - 50000 c[1,6,-1.0]
   >= -49992
 R457: - m[1,0,24] + 2 m[1,0,25] + 6649 m[1,0,26] - 6646 m[1,0,27]
   - 6647 m[1,1,25] - 2 m[1,1,26] + 3 m[1,1,27] - 50000 c[1,6,-1.0]
   >= -56647
 R458: 3 m[1,0,24] + 3 m[1,0,25] + 7 m[1,0,26] + 7 m[1,0,27] + 4 m[1,1,25]
   - m[1,1,26] - m[1,1,27] - 50000 c[1,6,-1.0] >= -49995
 R459: 4 m[1,0,24] - 6 m[1,0,25] + 15 m[1,0,26] + 2 m[1,0,27] - m[1,1,24]
   - 8 m[1,1,25] + 16 m[1,1,26] + 6 m[1,1,27] - 50000 c[1,6,-1.0]
   >= -49999
 R460: 3 m[1,0,24] - 4 m[1,0,25] - 16 m[1,0,26] - 9 m[1,1,24]
   + 20 m[1,1,25] + 4 m[1,1,26] + 8 m[1,1,27] - 50000 c[1,6,-1.0]
   >= -50009
 R461: c[1,7,0.0] + c[1,7,-3.0] + c[1,7,-2.0] + c[1,7,-1.41504]
   + c[1,7,-1.0] = 1
 R462: - m[1,0,28] - m[1,0,29] - m[1,0,30] - m[1,0,31] - m[1,1,28]
   - m[1,1,29] - m[1,1,30] - m[1,1,31] - 50000 c[1,7,0.0] >= -50000
 R463: c[1,7,-3.0] = 0
 R464: - m[1,0,30] - m[1,0,31] - m[1,1,28] - m[1,1,29] - 50000 c[1,7,-2.0]
   >= -50003
 R465: m[1,0,30] + 2 m[1,1,28] + 3 m[1,1,29] - 50000 c[1,7,-2.0] >= -49997
 R466: 2 m[1,0,30] + 3 m[1,0,31] + 2 m[1,1,28] + m[1,1,29]
   - 50000 c[1,7,-2.0] >= -49996
 R467: c[1,7,-1.41504] = 0
 R468: - m[1,0,28] - 2 m[1,0,29] - 6649 m[1,0,30] + 6645 m[1,0,31]
   - 6645 m[1,1,28] - 4 m[1,1,29] - 2 m[1,1,30] - 3 m[1,1,31]
   - 50000 c[1,7,-1.0] >= -56656
 R469: - 4 m[1,0,28] - 7 m[1,0,29] + 2 m[1,0,30] - m[1,0,31] - m[1,1,28]
   + 2 m[1,1,29] - 6 m[1,1,30] - 6 m[1,1,31] - 50000 c[1,7,-1.0] >= -50018
 R470: 1898 m[1,0,28] + 2848 m[1,0,29] + 1901 m[1,0,30] - 6649 m[1,0,31]
   + 6647 m[1,1,28] - 5698 m[1,1,29] + 1899 m[1,1,30] + 2849 m[1,1,31]
   - 50000 c[1,7,-1.0] >= -50951
 R471: - m[1,0,28] + 11 m[1,0,29] + 5 m[1,0,30] + 9 m[1,1,28]
   + 11 m[1,1,29] + 5 m[1,1,30] - 2 m[1,1,31] - 50000 c[1,7,-1.0]
   >= -49992
 R472: - m[1,0,28] + 2 m[1,0,29] + 6649 m[1,0,30] - 6646 m[1,0,31]
   - 6647 m[1,1,29] - 2 m[1,1,30] + 3 m[1,1,31] - 50000 c[1,7,-1.0]
   >= -56647
 R473: 3 m[1,0,28] + 3 m[1,0,29] + 7 m[1,0,30] + 7 m[1,0,31] + 4 m[1,1,29]
   - m[1,1,30] - m[1,1,31] - 50000 c[1,7,-1.0] >= -49995
 R474: 4 m[1,0,28] - 6 m[1,0,29] + 15 m[1,0,30] + 2 m[1,0,31] - m[1,1,28]
   - 8 m[1,1,29] + 16 m[1,1,30] + 6 m[1,1,31] - 50000 c[1,7,-1.0]
   >= -49999
 R475: 3 m[1,0,28] - 4 m[1,0,29] - 16 m[1,0,30] - 9 m[1,1,28]
   + 20 m[1,1,29] + 4 m[1,1,30] + 8 m[1,1,31] - 50000 c[1,7,-1.0]
   >= -50009
 R476: c[1,8,0.0] + c[1,8,-3.0] + c[1,8,-2.0] + c[1,8,-1.41504]
   + c[1,8,-1.0] = 1
 R477: - m[1,0,32] - m[1,0,33] - m[1,0,34] - m[1,0,35] - m[1,1,32]
   - m[1,1,33] - m[1,1,34] - m[1,1,35] - 50000 c[1,8,0.0] >= -50000
 R478: c[1,8,-3.0] = 0
 R479: - m[1,0,34] - m[1,0,35] - m[1,1,32] - m[1,1,33] - 50000 c[1,8,-2.0]
   >= -50003
 R480: m[1,0,34] + 2 m[1,1,32] + 3 m[1,1,33] - 50000 c[1,8,-2.0] >= -49997
 R481: 2 m[1,0,34] + 3 m[1,0,35] + 2 m[1,1,32] + m[1,1,33]
   - 50000 c[1,8,-2.0] >= -49996
 R482: c[1,8,-1.41504] = 0
 R483: - m[1,0,32] - 2 m[1,0,33] - 6649 m[1,0,34] + 6645 m[1,0,35]
   - 6645 m[1,1,32] - 4 m[1,1,33] - 2 m[1,1,34] - 3 m[1,1,35]
   - 50000 c[1,8,-1.0] >= -56656
 R484: - 4 m[1,0,32] - 7 m[1,0,33] + 2 m[1,0,34] - m[1,0,35] - m[1,1,32]
   + 2 m[1,1,33] - 6 m[1,1,34] - 6 m[1,1,35] - 50000 c[1,8,-1.0] >= -50018
 R485: 1898 m[1,0,32] + 2848 m[1,0,33] + 1901 m[1,0,34] - 6649 m[1,0,35]
   + 6647 m[1,1,32] - 5698 m[1,1,33] + 1899 m[1,1,34] + 2849 m[1,1,35]
   - 50000 c[1,8,-1.0] >= -50951
 R486: - m[1,0,32] + 11 m[1,0,33] + 5 m[1,0,34] + 9 m[1,1,32]
   + 11 m[1,1,33] + 5 m[1,1,34] - 2 m[1,1,35] - 50000 c[1,8,-1.0]
   >= -49992
 R487: - m[1,0,32] + 2 m[1,0,33] + 6649 m[1,0,34] - 6646 m[1,0,35]
   - 6647 m[1,1,33] - 2 m[1,1,34] + 3 m[1,1,35] - 50000 c[1,8,-1.0]
   >= -56647
 R488: 3 m[1,0,32] + 3 m[1,0,33] + 7 m[1,0,34] + 7 m[1,0,35] + 4 m[1,1,33]
   - m[1,1,34] - m[1,1,35] - 50000 c[1,8,-1.0] >= -49995
 R489: 4 m[1,0,32] - 6 m[1,0,33] + 15 m[1,0,34] + 2 m[1,0,35] - m[1,1,32]
   - 8 m[1,1,33] + 16 m[1,1,34] + 6 m[1,1,35] - 50000 c[1,8,-1.0]
   >= -49999
 R490: 3 m[1,0,32] - 4 m[1,0,33] - 16 m[1,0,34] - 9 m[1,1,32]
   + 20 m[1,1,33] + 4 m[1,1,34] + 8 m[1,1,35] - 50000 c[1,8,-1.0]
   >= -50009
 R491: c[1,9,0.0] + c[1,9,-3.0] + c[1,9,-2.0] + c[1,9,-1.41504]
   + c[1,9,-1.0] = 1
 R492: - m[1,0,36] - m[1,0,37] - m[1,0,38] - m[1,0,39] - m[1,1,36]
   - m[1,1,37] - m[1,1,38] - m[1,1,39] - 50000 c[1,9,0.0] >= -50000
 R493: c[1,9,-3.0] = 0
 R494: - m[1,0,38] - m[1,0,39] - m[1,1,36] - m[1,1,37] - 50000 c[1,9,-2.0]
   >= -50003
 R495: m[1,0,38] + 2 m[1,1,36] + 3 m[1,1,37] - 50000 c[1,9,-2.0] >= -49997
 R496: 2 m[1,0,38] + 3 m[1,0,39] + 2 m[1,1,36] + m[1,1,37]
   - 50000 c[1,9,-2.0] >= -49996
 R497: c[1,9,-1.41504] = 0
 R498: - m[1,0,36] - 2 m[1,0,37] - 6649 m[1,0,38] + 6645 m[1,0,39]
   - 6645 m[1,1,36] - 4 m[1,1,37] - 2 m[1,1,38] - 3 m[1,1,39]
   - 50000 c[1,9,-1.0] >= -56656
 R499: - 4 m[1,0,36] - 7 m[1,0,37] + 2 m[1,0,38] - m[1,0,39] - m[1,1,36]
   + 2 m[1,1,37] - 6 m[1,1,38] - 6 m[1,1,39] - 50000 c[1,9,-1.0] >= -50018
 R500: 1898 m[1,0,36] + 2848 m[1,0,37] + 1901 m[1,0,38] - 6649 m[1,0,39]
   + 6647 m[1,1,36] - 5698 m[1,1,37] + 1899 m[1,1,38] + 2849 m[1,1,39]
   - 50000 c[1,9,-1.0] >= -50951
 R501: - m[1,0,36] + 11 m[1,0,37] + 5 m[1,0,38] + 9 m[1,1,36]
   + 11 m[1,1,37] + 5 m[1,1,38] - 2 m[1,1,39] - 50000 c[1,9,-1.0]
   >= -49992
 R502: - m[1,0,36] + 2 m[1,0,37] + 6649 m[1,0,38] - 6646 m[1,0,39]
   - 6647 m[1,1,37] - 2 m[1,1,38] + 3 m[1,1,39] - 50000 c[1,9,-1.0]
   >= -56647
 R503: 3 m[1,0,36] + 3 m[1,0,37] + 7 m[1,0,38] + 7 m[1,0,39] + 4 m[1,1,37]
   - m[1,1,38] - m[1,1,39] - 50000 c[1,9,-1.0] >= -49995
 R504: 4 m[1,0,36] - 6 m[1,0,37] + 15 m[1,0,38] + 2 m[1,0,39] - m[1,1,36]
   - 8 m[1,1,37] + 16 m[1,1,38] + 6 m[1,1,39] - 50000 c[1,9,-1.0]
   >= -49999
 R505: 3 m[1,0,36] - 4 m[1,0,37] - 16 m[1,0,38] - 9 m[1,1,36]
   + 20 m[1,1,37] + 4 m[1,1,38] + 8 m[1,1,39] - 50000 c[1,9,-1.0]
   >= -50009
 R506: c[1,10,0.0] + c[1,10,-3.0] + c[1,10,-2.0] + c[1,10,-1.41504]
   + c[1,10,-1.0] = 1
 R507: - m[1,0,40] - m[1,0,41] - m[1,0,42] - m[1,0,43] - m[1,1,40]
   - m[1,1,41] - m[1,1,42] - m[1,1,43] - 50000 c[1,10,0.0] >= -50000
 R508: c[1,10,-3.0] = 0
 R509: - m[1,0,42] - m[1,0,43] - m[1,1,40] - m[1,1,41] - 50000 c[1,10,-2.0]
   >= -50003
 R510: m[1,0,42] + 2 m[1,1,40] + 3 m[1,1,41] - 50000 c[1,10,-2.0]
   >= -49997
 R511: 2 m[1,0,42] + 3 m[1,0,43] + 2 m[1,1,40] + m[1,1,41]
   - 50000 c[1,10,-2.0] >= -49996
 R512: c[1,10,-1.41504] = 0
 R513: - m[1,0,40] - 2 m[1,0,41] - 6649 m[1,0,42] + 6645 m[1,0,43]
   - 6645 m[1,1,40] - 4 m[1,1,41] - 2 m[1,1,42] - 3 m[1,1,43]
   - 50000 c[1,10,-1.0] >= -56656
 R514: - 4 m[1,0,40] - 7 m[1,0,41] + 2 m[1,0,42] - m[1,0,43] - m[1,1,40]
   + 2 m[1,1,41] - 6 m[1,1,42] - 6 m[1,1,43] - 50000 c[1,10,-1.0]
   >= -50018
 R515: 1898 m[1,0,40] + 2848 m[1,0,41] + 1901 m[1,0,42] - 6649 m[1,0,43]
   + 6647 m[1,1,40] - 5698 m[1,1,41] + 1899 m[1,1,42] + 2849 m[1,1,43]
   - 50000 c[1,10,-1.0] >= -50951
 R516: - m[1,0,40] + 11 m[1,0,41] + 5 m[1,0,42] + 9 m[1,1,40]
   + 11 m[1,1,41] + 5 m[1,1,42] - 2 m[1,1,43] - 50000 c[1,10,-1.0]
   >= -49992
 R517: - m[1,0,40] + 2 m[1,0,41] + 6649 m[1,0,42] - 6646 m[1,0,43]
   - 6647 m[1,1,41] - 2 m[1,1,42] + 3 m[1,1,43] - 50000 c[1,10,-1.0]
   >= -56647
 R518: 3 m[1,0,40] + 3 m[1,0,41] + 7 m[1,0,42] + 7 m[1,0,43] + 4 m[1,1,41]
   - m[1,1,42] - m[1,1,43] - 50000 c[1,10,-1.0] >= -49995
 R519: 4 m[1,0,40] - 6 m[1,0,41] + 15 m[1,0,42] + 2 m[1,0,43] - m[1,1,40]
   - 8 m[1,1,41] + 16 m[1,1,42] + 6 m[1,1,43] - 50000 c[1,10,-1.0]
   >= -49999
 R520: 3 m[1,0,40] - 4 m[1,0,41] - 16 m[1,0,42] - 9 m[1,1,40]
   + 20 m[1,1,41] + 4 m[1,1,42] + 8 m[1,1,43] - 50000 c[1,10,-1.0]
   >= -50009
 R521: c[1,11,0.0] + c[1,11,-3.0] + c[1,11,-2.0] + c[1,11,-1.41504]
   + c[1,11,-1.0] = 1
 R522: - m[1,0,44] - m[1,0,45] - m[1,0,46] - m[1,0,47] - m[1,1,44]
   - m[1,1,45] - m[1,1,46] - m[1,1,47] - 50000 c[1,11,0.0] >= -50000
 R523: c[1,11,-3.0] = 0
 R524: - m[1,0,46] - m[1,0,47] - m[1,1,44] - m[1,1,45] - 50000 c[1,11,-2.0]
   >= -50003
 R525: m[1,0,46] + 2 m[1,1,44] + 3 m[1,1,45] - 50000 c[1,11,-2.0]
   >= -49997
 R526: 2 m[1,0,46] + 3 m[1,0,47] + 2 m[1,1,44] + m[1,1,45]
   - 50000 c[1,11,-2.0] >= -49996
 R527: c[1,11,-1.41504] = 0
 R528: - m[1,0,44] - 2 m[1,0,45] - 6649 m[1,0,46] + 6645 m[1,0,47]
   - 6645 m[1,1,44] - 4 m[1,1,45] - 2 m[1,1,46] - 3 m[1,1,47]
   - 50000 c[1,11,-1.0] >= -56656
 R529: - 4 m[1,0,44] - 7 m[1,0,45] + 2 m[1,0,46] - m[1,0,47] - m[1,1,44]
   + 2 m[1,1,45] - 6 m[1,1,46] - 6 m[1,1,47] - 50000 c[1,11,-1.0]
   >= -50018
 R530: 1898 m[1,0,44] + 2848 m[1,0,45] + 1901 m[1,0,46] - 6649 m[1,0,47]
   + 6647 m[1,1,44] - 5698 m[1,1,45] + 1899 m[1,1,46] + 2849 m[1,1,47]
   - 50000 c[1,11,-1.0] >= -50951
 R531: - m[1,0,44] + 11 m[1,0,45] + 5 m[1,0,46] + 9 m[1,1,44]
   + 11 m[1,1,45] + 5 m[1,1,46] - 2 m[1,1,47] - 50000 c[1,11,-1.0]
   >= -49992
 R532: - m[1,0,44] + 2 m[1,0,45] + 6649 m[1,0,46] - 6646 m[1,0,47]
   - 6647 m[1,1,45] - 2 m[1,1,46] + 3 m[1,1,47] - 50000 c[1,11,-1.0]
   >= -56647
 R533: 3 m[1,0,44] + 3 m[1,0,45] + 7 m[1,0,46] + 7 m[1,0,47] + 4 m[1,1,45]
   - m[1,1,46] - m[1,1,47] - 50000 c[1,11,-1.0] >= -49995
 R534: 4 m[1,0,44] - 6 m[1,0,45] + 15 m[1,0,46] + 2 m[1,0,47] - m[1,1,44]
   - 8 m[1,1,45] + 16 m[1,1,46] + 6 m[1,1,47] - 50000 c[1,11,-1.0]
   >= -49999
 R535: 3 m[1,0,44] - 4 m[1,0,45] - 16 m[1,0,46] - 9 m[1,1,44]
   + 20 m[1,1,45] + 4 m[1,1,46] + 8 m[1,1,47] - 50000 c[1,11,-1.0]
   >= -50009
 R536: c[1,12,0.0] + c[1,12,-3.0] + c[1,12,-2.0] + c[1,12,-1.41504]
   + c[1,12,-1.0] = 1
 R537: c[1,12,0.0] = 0
 R538: c[1,12,-3.0] = 0
 R539: - m[1,0,49] - 2 m[1,0,50] + 3 m[1,1,49] + 2 m[1,1,50] + m[1,1,51]
   - 50000 c[1,12,-2.0] >= -50000
 R540: - m[1,0,49] + 2 m[1,0,50] - 3 m[1,1,49] + 2 m[1,1,50] - m[1,1,51]
   - 50000 c[1,12,-2.0] >= -50002
 R541: m[1,0,49] + 2 m[1,0,50] + 3 m[1,1,49] - 2 m[1,1,50] - m[1,1,51]
   - 50000 c[1,12,-2.0] >= -50000
 R542: m[1,0,49] - 2 m[1,0,50] - 3 m[1,1,49] - 2 m[1,1,50] + m[1,1,51]
   - 50000 c[1,12,-2.0] >= -50004
 R543: c[1,12,-1.41504] = 0
 R544: c[1,12,-1.0] = 0
 R545: c[1,13,0.0] + c[1,13,-3.0] + c[1,13,-2.0] + c[1,13,-1.41504]
   + c[1,13,-1.0] = 1
 R546: - m[1,0,52] - m[1,0,53] - m[1,0,54] - m[1,0,55] - m[1,1,52]
   - m[1,1,53] - m[1,1,54] - m[1,1,55] - 50000 c[1,13,0.0] >= -50000
 R547: c[1,13,-3.0] = 0
 R548: - m[1,0,54] - m[1,0,55] - m[1,1,52] - m[1,1,53] - 50000 c[1,13,-2.0]
   >= -50003
 R549: m[1,0,54] + 2 m[1,1,52] + 3 m[1,1,53] - 50000 c[1,13,-2.0]
   >= -49997
 R550: 2 m[1,0,54] + 3 m[1,0,55] + 2 m[1,1,52] + m[1,1,53]
   - 50000 c[1,13,-2.0] >= -49996
 R551: c[1,13,-1.41504] = 0
 R552: - m[1,0,52] - 2 m[1,0,53] - 6649 m[1,0,54] + 6645 m[1,0,55]
   - 6645 m[1,1,52] - 4 m[1,1,53] - 2 m[1,1,54] - 3 m[1,1,55]
   - 50000 c[1,13,-1.0] >= -56656
 R553: - 4 m[1,0,52] - 7 m[1,0,53] + 2 m[1,0,54] - m[1,0,55] - m[1,1,52]
   + 2 m[1,1,53] - 6 m[1,1,54] - 6 m[1,1,55] - 50000 c[1,13,-1.0]
   >= -50018
 R554: 1898 m[1,0,52] + 2848 m[1,0,53] + 1901 m[1,0,54] - 6649 m[1,0,55]
   + 6647 m[1,1,52] - 5698 m[1,1,53] + 1899 m[1,1,54] + 2849 m[1,1,55]
   - 50000 c[1,13,-1.0] >= -50951
 R555: - m[1,0,52] + 11 m[1,0,53] + 5 m[1,0,54] + 9 m[1,1,52]
   + 11 m[1,1,53] + 5 m[1,1,54] - 2 m[1,1,55] - 50000 c[1,13,-1.0]
   >= -49992
 R556: - m[1,0,52] + 2 m[1,0,53] + 6649 m[1,0,54] - 6646 m[1,0,55]
   - 6647 m[1,1,53] - 2 m[1,1,54] + 3 m[1,1,55] - 50000 c[1,13,-1.0]
   >= -56647
 R557: 3 m[1,0,52] + 3 m[1,0,53] + 7 m[1,0,54] + 7 m[1,0,55] + 4 m[1,1,53]
   - m[1,1,54] - m[1,1,55] - 50000 c[1,13,-1.0] >= -49995
 R558: 4 m[1,0,52] - 6 m[1,0,53] + 15 m[1,0,54] + 2 m[1,0,55] - m[1,1,52]
   - 8 m[1,1,53] + 16 m[1,1,54] + 6 m[1,1,55] - 50000 c[1,13,-1.0]
   >= -49999
 R559: 3 m[1,0,52] - 4 m[1,0,53] - 16 m[1,0,54] - 9 m[1,1,52]
   + 20 m[1,1,53] + 4 m[1,1,54] + 8 m[1,1,55] - 50000 c[1,13,-1.0]
   >= -50009
 R560: c[1,14,0.0] + c[1,14,-3.0] + c[1,14,-2.0] + c[1,14,-1.41504]
   + c[1,14,-1.0] = 1
 R561: c[1,14,0.0] = 0
 R562: c[1,14,-3.0] = 0
 R563: m[1,0,57] + 3 m[1,0,58] + 2 m[1,1,57] - m[1,1,58] - 2 m[1,1,59]
   - 50000 c[1,14,-2.0] >= -50000
 R564: - m[1,0,57] - 3 m[1,0,58] + 2 m[1,1,57] - m[1,1,58] + 2 m[1,1,59]
   - 50000 c[1,14,-2.0] >= -50002
 R565: m[1,0,57] - 3 m[1,0,58] - 2 m[1,1,57] + m[1,1,58] - 2 m[1,1,59]
   - 50000 c[1,14,-2.0] >= -50004
 R566: - m[1,0,57] + 3 m[1,0,58] - 2 m[1,1,57] + m[1,1,58] + 2 m[1,1,59]
   - 50000 c[1,14,-2.0] >= -50000
 R567: c[1,14,-1.41504] = 0
 R568: c[1,14,-1.0] = 0
 R569: c[1,15,0.0] + c[1,15,-3.0] + c[1,15,-2.0] + c[1,15,-1.41504]
   + c[1,15,-1.0] = 1
 R570: - m[1,0,60] - m[1,0,61] - m[1,0,62] - m[1,0,63] - m[1,1,60]
   - m[1,1,61] - m[1,1,62] - m[1,1,63] - 50000 c[1,15,0.0] >= -50000
 R571: c[1,15,-3.0] = 0
 R572: - m[1,0,62] - m[1,0,63] - m[1,1,60] - m[1,1,61] - 50000 c[1,15,-2.0]
   >= -50003
 R573: m[1,0,62] + 2 m[1,1,60] + 3 m[1,1,61] - 50000 c[1,15,-2.0]
   >= -49997
 R574: 2 m[1,0,62] + 3 m[1,0,63] + 2 m[1,1,60] + m[1,1,61]
   - 50000 c[1,15,-2.0] >= -49996
 R575: c[1,15,-1.41504] = 0
 R576: - m[1,0,60] - 2 m[1,0,61] - 6649 m[1,0,62] + 6645 m[1,0,63]
   - 6645 m[1,1,60] - 4 m[1,1,61] - 2 m[1,1,62] - 3 m[1,1,63]
   - 50000 c[1,15,-1.0] >= -56656
 R577: - 4 m[1,0,60] - 7 m[1,0,61] + 2 m[1,0,62] - m[1,0,63] - m[1,1,60]
   + 2 m[1,1,61] - 6 m[1,1,62] - 6 m[1,1,63] - 50000 c[1,15,-1.0]
   >= -50018
 R578: 1898 m[1,0,60] + 2848 m[1,0,61] + 1901 m[1,0,62] - 6649 m[1,0,63]
   + 6647 m[1,1,60] - 5698 m[1,1,61] + 1899 m[1,1,62] + 2849 m[1,1,63]
   - 50000 c[1,15,-1.0] >= -50951
 R579: - m[1,0,60] + 11 m[1,0,61] + 5 m[1,0,62] + 9 m[1,1,60]
   + 11 m[1,1,61] + 5 m[1,1,62] - 2 m[1,1,63] - 50000 c[1,15,-1.0]
   >= -49992
 R580: - m[1,0,60] + 2 m[1,0,61] + 6649 m[1,0,62] - 6646 m[1,0,63]
   - 6647 m[1,1,61] - 2 m[1,1,62] + 3 m[1,1,63] - 50000 c[1,15,-1.0]
   >= -56647
 R581: 3 m[1,0,60] + 3 m[1,0,61] + 7 m[1,0,62] + 7 m[1,0,63] + 4 m[1,1,61]
   - m[1,1,62] - m[1,1,63] - 50000 c[1,15,-1.0] >= -49995
 R582: 4 m[1,0,60] - 6 m[1,0,61] + 15 m[1,0,62] + 2 m[1,0,63] - m[1,1,60]
   - 8 m[1,1,61] + 16 m[1,1,62] + 6 m[1,1,63] - 50000 c[1,15,-1.0]
   >= -49999
 R583: 3 m[1,0,60] - 4 m[1,0,61] - 16 m[1,0,62] - 9 m[1,1,60]
   + 20 m[1,1,61] + 4 m[1,1,62] + 8 m[1,1,63] - 50000 c[1,15,-1.0]
   >= -50009
 R584: c[2,0,0.0] + c[2,0,-3.0] + c[2,0,-2.0] + c[2,0,-1.41504]
   + c[2,0,-1.0] = 1
 R585: - m[2,0,0] - m[2,0,1] - m[2,0,2] - m[2,0,3] - m[2,1,0] - m[2,1,1]
   - m[2,1,2] - m[2,1,3] - 50000 c[2,0,0.0] >= -50000
 R586: c[2,0,-3.0] = 0
 R587: - m[2,0,2] - m[2,0,3] - m[2,1,0] - m[2,1,1] - 50000 c[2,0,-2.0]
   >= -50003
 R588: m[2,0,2] + 2 m[2,1,0] + 3 m[2,1,1] - 50000 c[2,0,-2.0] >= -49997
 R589: 2 m[2,0,2] + 3 m[2,0,3] + 2 m[2,1,0] + m[2,1,1] - 50000 c[2,0,-2.0]
   >= -49996
 R590: c[2,0,-1.41504] = 0
 R591: - m[2,0,0] - 2 m[2,0,1] - 6649 m[2,0,2] + 6645 m[2,0,3]
   - 6645 m[2,1,0] - 4 m[2,1,1] - 2 m[2,1,2] - 3 m[2,1,3]
   - 50000 c[2,0,-1.0] >= -56656
 R592: - 4 m[2,0,0] - 7 m[2,0,1] + 2 m[2,0,2] - m[2,0,3] - m[2,1,0]
   + 2 m[2,1,1] - 6 m[2,1,2] - 6 m[2,1,3] - 50000 c[2,0,-1.0] >= -50018
 R593: 1898 m[2,0,0] + 2848 m[2,0,1] + 1901 m[2,0,2] - 6649 m[2,0,3]
   + 6647 m[2,1,0] - 5698 m[2,1,1] + 1899 m[2,1,2] + 2849 m[2,1,3]
   - 50000 c[2,0,-1.0] >= -50951
 R594: - m[2,0,0] + 11 m[2,0,1] + 5 m[2,0,2] + 9 m[2,1,0] + 11 m[2,1,1]
   + 5 m[2,1,2] - 2 m[2,1,3] - 50000 c[2,0,-1.0] >= -49992
 R595: - m[2,0,0] + 2 m[2,0,1] + 6649 m[2,0,2] - 6646 m[2,0,3]
   - 6647 m[2,1,1] - 2 m[2,1,2] + 3 m[2,1,3] - 50000 c[2,0,-1.0] >= -56647
 R596: 3 m[2,0,0] + 3 m[2,0,1] + 7 m[2,0,2] + 7 m[2,0,3] + 4 m[2,1,1]
   - m[2,1,2] - m[2,1,3] - 50000 c[2,0,-1.0] >= -49995
 R597: 4 m[2,0,0] - 6 m[2,0,1] + 15 m[2,0,2] + 2 m[2,0,3] - m[2,1,0]
   - 8 m[2,1,1] + 16 m[2,1,2] + 6 m[2,1,3] - 50000 c[2,0,-1.0] >= -49999
 R598: 3 m[2,0,0] - 4 m[2,0,1] - 16 m[2,0,2] - 9 m[2,1,0] + 20 m[2,1,1]
   + 4 m[2,1,2] + 8 m[2,1,3] - 50000 c[2,0,-1.0] >= -50009
 R599: c[2,1,0.0] + c[2,1,-3.0] + c[2,1,-2.0] + c[2,1,-1.41504]
   + c[2,1,-1.0] = 1
 R600: - m[2,0,4] - m[2,0,5] - m[2,0,6] - m[2,0,7] - m[2,1,4] - m[2,1,5]
   - m[2,1,6] - m[2,1,7] - 50000 c[2,1,0.0] >= -50000
 R601: c[2,1,-3.0] = 0
 R602: - m[2,0,6] - m[2,0,7] - m[2,1,4] - m[2,1,5] - 50000 c[2,1,-2.0]
   >= -50003
 R603: m[2,0,6] + 2 m[2,1,4] + 3 m[2,1,5] - 50000 c[2,1,-2.0] >= -49997
 R604: 2 m[2,0,6] + 3 m[2,0,7] + 2 m[2,1,4] + m[2,1,5] - 50000 c[2,1,-2.0]
   >= -49996
 R605: c[2,1,-1.41504] = 0
 R606: - m[2,0,4] - 2 m[2,0,5] - 6649 m[2,0,6] + 6645 m[2,0,7]
   - 6645 m[2,1,4] - 4 m[2,1,5] - 2 m[2,1,6] - 3 m[2,1,7]
   - 50000 c[2,1,-1.0] >= -56656
 R607: - 4 m[2,0,4] - 7 m[2,0,5] + 2 m[2,0,6] - m[2,0,7] - m[2,1,4]
   + 2 m[2,1,5] - 6 m[2,1,6] - 6 m[2,1,7] - 50000 c[2,1,-1.0] >= -50018
 R608: 1898 m[2,0,4] + 2848 m[2,0,5] + 1901 m[2,0,6] - 6649 m[2,0,7]
   + 6647 m[2,1,4] - 5698 m[2,1,5] + 1899 m[2,1,6] + 2849 m[2,1,7]
   - 50000 c[2,1,-1.0] >= -50951
 R609: - m[2,0,4] + 11 m[2,0,5] + 5 m[2,0,6] + 9 m[2,1,4] + 11 m[2,1,5]
   + 5 m[2,1,6] - 2 m[2,1,7] - 50000 c[2,1,-1.0] >= -49992
 R610: - m[2,0,4] + 2 m[2,0,5] + 6649 m[2,0,6] - 6646 m[2,0,7]
   - 6647 m[2,1,5] - 2 m[2,1,6] + 3 m[2,1,7] - 50000 c[2,1,-1.0] >= -56647
 R611: 3 m[2,0,4] + 3 m[2,0,5] + 7 m[2,0,6] + 7 m[2,0,7] + 4 m[2,1,5]
   - m[2,1,6] - m[2,1,7] - 50000 c[2,1,-1.0] >= -49995
 R612: 4 m[2,0,4] - 6 m[2,0,5] + 15 m[2,0,6] + 2 m[2,0,7] - m[2,1,4]
   - 8 m[2,1,5] + 16 m[2,1,6] + 6 m[2,1,7] - 50000 c[2,1,-1.0] >= -49999
 R613: 3 m[2,0,4] - 4 m[2,0,5] - 16 m[2,0,6] - 9 m[2,1,4] + 20 m[2,1,5]
   + 4 m[2,1,6] + 8 m[2,1,7] - 50000 c[2,1,-1.0] >= -50009
 R614: c[2,2,0.0] + c[2,2,-3.0] + c[2,2,-2.0] + c[2,2,-1.41504]
   + c[2,2,-1.0] = 1
 R615: - m[2,0,8] - m[2,0,9] - m[2,0,10] - m[2,0,11] - m[2,1,8] - m[2,1,9]
   - m[2,1,10] - m[2,1,11] - 50000 c[2,2,0.0] >= -50000
 R616: c[2,2,-3.0] = 0
 R617: - m[2,0,10] - m[2,0,11] - m[2,1,8] - m[2,1,9] - 50000 c[2,2,-2.0]
   >= -50003
 R618: m[2,0,10] + 2 m[2,1,8] + 3 m[2,1,9] - 50000 c[2,2,-2.0] >= -49997
 R619: 2 m[2,0,10] + 3 m[2,0,11] + 2 m[2,1,8] + m[2,1,9]
   - 50000 c[2,2,-2.0] >= -49996
 R620: c[2,2,-1.41504] = 0
 R621: - m[2,0,8] - 2 m[2,0,9] - 6649 m[2,0,10] + 6645 m[2,0,11]
   - 6645 m[2,1,8] - 4 m[2,1,9] - 2 m[2,1,10] - 3 m[2,1,11]
   - 50000 c[2,2,-1.0] >= -56656
 R622: - 4 m[2,0,8] - 7 m[2,0,9] + 2 m[2,0,10] - m[2,0,11] - m[2,1,8]
   + 2 m[2,1,9] - 6 m[2,1,10] - 6 m[2,1,11] - 50000 c[2,2,-1.0] >= -50018
 R623: 1898 m[2,0,8] + 2848 m[2,0,9] + 1901 m[2,0,10] - 6649 m[2,0,11]
   + 6647 m[2,1,8] - 5698 m[2,1,9] + 1899 m[2,1,10] + 2849 m[2,1,11]
   - 50000 c[2,2,-1.0] >= -50951
 R624: - m[2,0,8] + 11 m[2,0,9] + 5 m[2,0,10] + 9 m[2,1,8] + 11 m[2,1,9]
   + 5 m[2,1,10] - 2 m[2,1,11] - 50000 c[2,2,-1.0] >= -49992
 R625: - m[2,0,8] + 2 m[2,0,9] + 6649 m[2,0,10] - 6646 m[2,0,11]
   - 6647 m[2,1,9] - 2 m[2,1,10] + 3 m[2,1,11] - 50000 c[2,2,-1.0]
   >= -56647
 R626: 3 m[2,0,8] + 3 m[2,0,9] + 7 m[2,0,10] + 7 m[2,0,11] + 4 m[2,1,9]
   - m[2,1,10] - m[2,1,11] - 50000 c[2,2,-1.0] >= -49995
 R627: 4 m[2,0,8] - 6 m[2,0,9] + 15 m[2,0,10] + 2 m[2,0,11] - m[2,1,8]
   - 8 m[2,1,9] + 16 m[2,1,10] + 6 m[2,1,11] - 50000 c[2,2,-1.0] >= -49999
 R628: 3 m[2,0,8] - 4 m[2,0,9] - 16 m[2,0,10] - 9 m[2,1,8] + 20 m[2,1,9]
   + 4 m[2,1,10] + 8 m[2,1,11] - 50000 c[2,2,-1.0] >= -50009
 R629: c[2,3,0.0] + c[2,3,-3.0] + c[2,3,-2.0] + c[2,3,-1.41504]
   + c[2,3,-1.0] = 1
 R630: c[2,3,0.0] = 0
 R631: - m[2,0,13] - m[2,0,15] - m[2,1,14] - 50000 c[2,3,-3.0] >= -50002
 R632: m[2,0,13] + m[2,0,15] - m[2,1,14] - 50000 c[2,3,-3.0] >= -50000
 R633: - m[2,0,13] + m[2,0,15] + m[2,1,14] - 50000 c[2,3,-3.0] >= -50000
 R634: m[2,0,13] - m[2,0,15] + m[2,1,14] - 50000 c[2,3,-3.0] >= -50000
 R635: c[2,3,-2.0] = 0
 R636: c[2,3,-1.41504] = 0
 R637: c[2,3,-1.0] = 0
 R638: c[2,4,0.0] + c[2,4,-3.0] + c[2,4,-2.0] + c[2,4,-1.41504]
   + c[2,4,-1.0] = 1
 R639: - m[2,0,16] - m[2,0,17] - m[2,0,18] - m[2,0,19] - m[2,1,16]
   - m[2,1,17] - m[2,1,18] - m[2,1,19] - 50000 c[2,4,0.0] >= -50000
 R640: c[2,4,-3.0] = 0
 R641: - m[2,0,18] - m[2,0,19] - m[2,1,16] - m[2,1,17] - 50000 c[2,4,-2.0]
   >= -50003
 R642: m[2,0,18] + 2 m[2,1,16] + 3 m[2,1,17] - 50000 c[2,4,-2.0] >= -49997
 R643: 2 m[2,0,18] + 3 m[2,0,19] + 2 m[2,1,16] + m[2,1,17]
   - 50000 c[2,4,-2.0] >= -49996
 R644: c[2,4,-1.41504] = 0
 R645: - m[2,0,16] - 2 m[2,0,17] - 6649 m[2,0,18] + 6645 m[2,0,19]
   - 6645 m[2,1,16] - 4 m[2,1,17] - 2 m[2,1,18] - 3 m[2,1,19]
   - 50000 c[2,4,-1.0] >= -56656
 R646: - 4 m[2,0,16] - 7 m[2,0,17] + 2 m[2,0,18] - m[2,0,19] - m[2,1,16]
   + 2 m[2,1,17] - 6 m[2,1,18] - 6 m[2,1,19] - 50000 c[2,4,-1.0] >= -50018
 R647: 1898 m[2,0,16] + 2848 m[2,0,17] + 1901 m[2,0,18] - 6649 m[2,0,19]
   + 6647 m[2,1,16] - 5698 m[2,1,17] + 1899 m[2,1,18] + 2849 m[2,1,19]
   - 50000 c[2,4,-1.0] >= -50951
 R648: - m[2,0,16] + 11 m[2,0,17] + 5 m[2,0,18] + 9 m[2,1,16]
   + 11 m[2,1,17] + 5 m[2,1,18] - 2 m[2,1,19] - 50000 c[2,4,-1.0]
   >= -49992
 R649: - m[2,0,16] + 2 m[2,0,17] + 6649 m[2,0,18] - 6646 m[2,0,19]
   - 6647 m[2,1,17] - 2 m[2,1,18] + 3 m[2,1,19] - 50000 c[2,4,-1.0]
   >= -56647
 R650: 3 m[2,0,16] + 3 m[2,0,17] + 7 m[2,0,18] + 7 m[2,0,19] + 4 m[2,1,17]
   - m[2,1,18] - m[2,1,19] - 50000 c[2,4,-1.0] >= -49995
 R651: 4 m[2,0,16] - 6 m[2,0,17] + 15 m[2,0,18] + 2 m[2,0,19] - m[2,1,16]
   - 8 m[2,1,17] + 16 m[2,1,18] + 6 m[2,1,19] - 50000 c[2,4,-1.0]
   >= -49999
 R652: 3 m[2,0,16] - 4 m[2,0,17] - 16 m[2,0,18] - 9 m[2,1,16]
   + 20 m[2,1,17] + 4 m[2,1,18] + 8 m[2,1,19] - 50000 c[2,4,-1.0]
   >= -50009
 R653: c[2,5,0.0] + c[2,5,-3.0] + c[2,5,-2.0] + c[2,5,-1.41504]
   + c[2,5,-1.0] = 1
 R654: - m[2,0,20] - m[2,0,21] - m[2,0,22] - m[2,0,23] - m[2,1,20]
   - m[2,1,21] - m[2,1,22] - m[2,1,23] - 50000 c[2,5,0.0] >= -50000
 R655: c[2,5,-3.0] = 0
 R656: - m[2,0,22] - m[2,0,23] - m[2,1,20] - m[2,1,21] - 50000 c[2,5,-2.0]
   >= -50003
 R657: m[2,0,22] + 2 m[2,1,20] + 3 m[2,1,21] - 50000 c[2,5,-2.0] >= -49997
 R658: 2 m[2,0,22] + 3 m[2,0,23] + 2 m[2,1,20] + m[2,1,21]
   - 50000 c[2,5,-2.0] >= -49996
 R659: c[2,5,-1.41504] = 0
 R660: - m[2,0,20] - 2 m[2,0,21] - 6649 m[2,0,22] + 6645 m[2,0,23]
   - 6645 m[2,1,20] - 4 m[2,1,21] - 2 m[2,1,22] - 3 m[2,1,23]
   - 50000 c[2,5,-1.0] >= -56656
 R661: - 4 m[2,0,20] - 7 m[2,0,21] + 2 m[2,0,22] - m[2,0,23] - m[2,1,20]
   + 2 m[2,1,21] - 6 m[2,1,22] - 6 m[2,1,23] - 50000 c[2,5,-1.0] >= -50018
 R662: 1898 m[2,0,20] + 2848 m[2,0,21] + 1901 m[2,0,22] - 6649 m[2,0,23]
   + 6647 m[2,1,20] - 5698 m[2,1,21] + 1899 m[2,1,22] + 2849 m[2,1,23]
   - 50000 c[2,5,-1.0] >= -50951
 R663: - m[2,0,20] + 11 m[2,0,21] + 5 m[2,0,22] + 9 m[2,1,20]
   + 11 m[2,1,21] + 5 m[2,1,22] - 2 m[2,1,23] - 50000 c[2,5,-1.0]
   >= -49992
 R664: - m[2,0,20] + 2 m[2,0,21] + 6649 m[2,0,22] - 6646 m[2,0,23]
   - 6647 m[2,1,21] - 2 m[2,1,22] + 3 m[2,1,23] - 50000 c[2,5,-1.0]
   >= -56647
 R665: 3 m[2,0,20] + 3 m[2,0,21] + 7 m[2,0,22] + 7 m[2,0,23] + 4 m[2,1,21]
   - m[2,1,22] - m[2,1,23] - 50000 c[2,5,-1.0] >= -49995
 R666: 4 m[2,0,20] - 6 m[2,0,21] + 15 m[2,0,22] + 2 m[2,0,23] - m[2,1,20]
   - 8 m[2,1,21] + 16 m[2,1,22] + 6 m[2,1,23] - 50000 c[2,5,-1.0]
   >= -49999
 R667: 3 m[2,0,20] - 4 m[2,0,21] - 16 m[2,0,22] - 9 m[2,1,20]
   + 20 m[2,1,21] + 4 m[2,1,22] + 8 m[2,1,23] - 50000 c[2,5,-1.0]
   >= -50009
 R668: c[2,6,0.0] + c[2,6,-3.0] + c[2,6,-2.0] + c[2,6,-1.41504]
   + c[2,6,-1.0] = 1
 R669: - m[2,0,24] - m[2,0,25] - m[2,0,26] - m[2,0,27] - m[2,1,24]
   - m[2,1,25] - m[2,1,26] - m[2,1,27] - 50000 c[2,6,0.0] >= -50000
 R670: c[2,6,-3.0] = 0
 R671: - m[2,0,26] - m[2,0,27] - m[2,1,24] - m[2,1,25] - 50000 c[2,6,-2.0]
   >= -50003
 R672: m[2,0,26] + 2 m[2,1,24] + 3 m[2,1,25] - 50000 c[2,6,-2.0] >= -49997
 R673: 2 m[2,0,26] + 3 m[2,0,27] + 2 m[2,1,24] + m[2,1,25]
   - 50000 c[2,6,-2.0] >= -49996
 R674: c[2,6,-1.41504] = 0
 R675: - m[2,0,24] - 2 m[2,0,25] - 6649 m[2,0,26] + 6645 m[2,0,27]
   - 6645 m[2,1,24] - 4 m[2,1,25] - 2 m[2,1,26] - 3 m[2,1,27]
   - 50000 c[2,6,-1.0] >= -56656
 R676: - 4 m[2,0,24] - 7 m[2,0,25] + 2 m[2,0,26] - m[2,0,27] - m[2,1,24]
   + 2 m[2,1,25] - 6 m[2,1,26] - 6 m[2,1,27] - 50000 c[2,6,-1.0] >= -50018
 R677: 1898 m[2,0,24] + 2848 m[2,0,25] + 1901 m[2,0,26] - 6649 m[2,0,27]
   + 6647 m[2,1,24] - 5698 m[2,1,25] + 1899 m[2,1,26] + 2849 m[2,1,27]
   - 50000 c[2,6,-1.0] >= -50951
 R678: - m[2,0,24] + 11 m[2,0,25] + 5 m[2,0,26] + 9 m[2,1,24]
   + 11 m[2,1,25] + 5 m[2,1,26] - 2 m[2,1,27] - 50000 c[2,6,-1.0]
   >= -49992
 R679: - m[2,0,24] + 2 m[2,0,25] + 6649 m[2,0,26] - 6646 m[2,0,27]
   - 6647 m[2,1,25] - 2 m[2,1,26] + 3 m[2,1,27] - 50000 c[2,6,-1.0]
   >= -56647
 R680: 3 m[2,0,24] + 3 m[2,0,25] + 7 m[2,0,26] + 7 m[2,0,27] + 4 m[2,1,25]
   - m[2,1,26] - m[2,1,27] - 50000 c[2,6,-1.0] >= -49995
 R681: 4 m[2,0,24] - 6 m[2,0,25] + 15 m[2,0,26] + 2 m[2,0,27] - m[2,1,24]
   - 8 m[2,1,25] + 16 m[2,1,26] + 6 m[2,1,27] - 50000 c[2,6,-1.0]
   >= -49999
 R682: 3 m[2,0,24] - 4 m[2,0,25] - 16 m[2,0,26] - 9 m[2,1,24]
   + 20 m[2,1,25] + 4 m[2,1,26] + 8 m[2,1,27] - 50000 c[2,6,-1.0]
   >= -50009
 R683: c[2,7,0.0] + c[2,7,-3.0] + c[2,7,-2.0] + c[2,7,-1.41504]
   + c[2,7,-1.0] = 1
 R684: - m[2,0,28] - m[2,0,29] - m[2,0,30] - m[2,0,31] - m[2,1,28]
   - m[2,1,29] - m[2,1,30] - m[2,1,31] - 50000 c[2,7,0.0] >= -50000
 R685: c[2,7,-3.0] = 0
 R686: - m[2,0,30] - m[2,0,31] - m[2,1,28] - m[2,1,29] - 50000 c[2,7,-2.0]
   >= -50003
 R687: m[2,0,30] + 2 m[2,1,28] + 3 m[2,1,29] - 50000 c[2,7,-2.0] >= -49997
 R688: 2 m[2,0,30] + 3 m[2,0,31] + 2 m[2,1,28] + m[2,1,29]
   - 50000 c[2,7,-2.0] >= -49996
 R689: c[2,7,-1.41504] = 0
 R690: - m[2,0,28] - 2 m[2,0,29] - 6649 m[2,0,30] + 6645 m[2,0,31]
   - 6645 m[2,1,28] - 4 m[2,1,29] - 2 m[2,1,30] - 3 m[2,1,31]
   - 50000 c[2,7,-1.0] >= -56656
 R691: - 4 m[2,0,28] - 7 m[2,0,29] + 2 m[2,0,30] - m[2,0,31] - m[2,1,28]
   + 2 m[2,1,29] - 6 m[2,1,30] - 6 m[2,1,31] - 50000 c[2,7,-1.0] >= -50018
 R692: 1898 m[2,0,28] + 2848 m[2,0,29] + 1901 m[2,0,30] - 6649 m[2,0,31]
   + 6647 m[2,1,28] - 5698 m[2,1,29] + 1899 m[2,1,30] + 2849 m[2,1,31]
   - 50000 c[2,7,-1.0] >= -50951
 R693: - m[2,0,28] + 11 m[2,0,29] + 5 m[2,0,30] + 9 m[2,1,28]
   + 11 m[2,1,29] + 5 m[2,1,30] - 2 m[2,1,31] - 50000 c[2,7,-1.0]
   >= -49992
 R694: - m[2,0,28] + 2 m[2,0,29] + 6649 m[2,0,30] - 6646 m[2,0,31]
   - 6647 m[2,1,29] - 2 m[2,1,30] + 3 m[2,1,31] - 50000 c[2,7,-1.0]
   >= -56647
 R695: 3 m[2,0,28] + 3 m[2,0,29] + 7 m[2,0,30] + 7 m[2,0,31] + 4 m[2,1,29]
   - m[2,1,30] - m[2,1,31] - 50000 c[2,7,-1.0] >= -49995
 R696: 4 m[2,0,28] - 6 m[2,0,29] + 15 m[2,0,30] + 2 m[2,0,31] - m[2,1,28]
   - 8 m[2,1,29] + 16 m[2,1,30] + 6 m[2,1,31] - 50000 c[2,7,-1.0]
   >= -49999
 R697: 3 m[2,0,28] - 4 m[2,0,29] - 16 m[2,0,30] - 9 m[2,1,28]
   + 20 m[2,1,29] + 4 m[2,1,30] + 8 m[2,1,31] - 50000 c[2,7,-1.0]
   >= -50009
 R698: c[2,8,0.0] + c[2,8,-3.0] + c[2,8,-2.0] + c[2,8,-1.41504]
   + c[2,8,-1.0] = 1
 R699: - m[2,0,32] - m[2,0,33] - m[2,0,34] - m[2,0,35] - m[2,1,32]
   - m[2,1,33] - m[2,1,34] - m[2,1,35] - 50000 c[2,8,0.0] >= -50000
 R700: c[2,8,-3.0] = 0
 R701: - m[2,0,34] - m[2,0,35] - m[2,1,32] - m[2,1,33] - 50000 c[2,8,-2.0]
   >= -50003
 R702: m[2,0,34] + 2 m[2,1,32] + 3 m[2,1,33] - 50000 c[2,8,-2.0] >= -49997
 R703: 2 m[2,0,34] + 3 m[2,0,35] + 2 m[2,1,32] + m[2,1,33]
   - 50000 c[2,8,-2.0] >= -49996
 R704: c[2,8,-1.41504] = 0
 R705: - m[2,0,32] - 2 m[2,0,33] - 6649 m[2,0,34] + 6645 m[2,0,35]
   - 6645 m[2,1,32] - 4 m[2,1,33] - 2 m[2,1,34] - 3 m[2,1,35]
   - 50000 c[2,8,-1.0] >= -56656
 R706: - 4 m[2,0,32] - 7 m[2,0,33] + 2 m[2,0,34] - m[2,0,35] - m[2,1,32]
   + 2 m[2,1,33] - 6 m[2,1,34] - 6 m[2,1,35] - 50000 c[2,8,-1.0] >= -50018
 R707: 1898 m[2,0,32] + 2848 m[2,0,33] + 1901 m[2,0,34] - 6649 m[2,0,35]
   + 6647 m[2,1,32] - 5698 m[2,1,33] + 1899 m[2,1,34] + 2849 m[2,1,35]
   - 50000 c[2,8,-1.0] >= -50951
 R708: - m[2,0,32] + 11 m[2,0,33] + 5 m[2,0,34] + 9 m[2,1,32]
   + 11 m[2,1,33] + 5 m[2,1,34] - 2 m[2,1,35] - 50000 c[2,8,-1.0]
   >= -49992
 R709: - m[2,0,32] + 2 m[2,0,33] + 6649 m[2,0,34] - 6646 m[2,0,35]
   - 6647 m[2,1,33] - 2 m[2,1,34] + 3 m[2,1,35] - 50000 c[2,8,-1.0]
   >= -56647
 R710: 3 m[2,0,32] + 3 m[2,0,33] + 7 m[2,0,34] + 7 m[2,0,35] + 4 m[2,1,33]
   - m[2,1,34] - m[2,1,35] - 50000 c[2,8,-1.0] >= -49995
 R711: 4 m[2,0,32] - 6 m[2,0,33] + 15 m[2,0,34] + 2 m[2,0,35] - m[2,1,32]
   - 8 m[2,1,33] + 16 m[2,1,34] + 6 m[2,1,35] - 50000 c[2,8,-1.0]
   >= -49999
 R712: 3 m[2,0,32] - 4 m[2,0,33] - 16 m[2,0,34] - 9 m[2,1,32]
   + 20 m[2,1,33] + 4 m[2,1,34] + 8 m[2,1,35] - 50000 c[2,8,-1.0]
   >= -50009
 R713: c[2,9,0.0] + c[2,9,-3.0] + c[2,9,-2.0] + c[2,9,-1.41504]
   + c[2,9,-1.0] = 1
 R714: - m[2,0,36] - m[2,0,37] - m[2,0,38] - m[2,0,39] - m[2,1,36]
   - m[2,1,37] - m[2,1,38] - m[2,1,39] - 50000 c[2,9,0.0] >= -50000
 R715: c[2,9,-3.0] = 0
 R716: - m[2,0,38] - m[2,0,39] - m[2,1,36] - m[2,1,37] - 50000 c[2,9,-2.0]
   >= -50003
 R717: m[2,0,38] + 2 m[2,1,36] + 3 m[2,1,37] - 50000 c[2,9,-2.0] >= -49997
 R718: 2 m[2,0,38] + 3 m[2,0,39] + 2 m[2,1,36] + m[2,1,37]
   - 50000 c[2,9,-2.0] >= -49996
 R719: c[2,9,-1.41504] = 0
 R720: - m[2,0,36] - 2 m[2,0,37] - 6649 m[2,0,38] + 6645 m[2,0,39]
   - 6645 m[2,1,36] - 4 m[2,1,37] - 2 m[2,1,38] - 3 m[2,1,39]
   - 50000 c[2,9,-1.0] >= -56656
 R721: - 4 m[2,0,36] - 7 m[2,0,37] + 2 m[2,0,38] - m[2,0,39] - m[2,1,36]
   + 2 m[2,1,37] - 6 m[2,1,38] - 6 m[2,1,39] - 50000 c[2,9,-1.0] >= -50018
 R722: 1898 m[2,0,36] + 2848 m[2,0,37] + 1901 m[2,0,38] - 6649 m[2,0,39]
   + 6647 m[2,1,36] - 5698 m[2,1,37] + 1899 m[2,1,38] + 2849 m[2,1,39]
   - 50000 c[2,9,-1.0] >= -50951
 R723: - m[2,0,36] + 11 m[2,0,37] + 5 m[2,0,38] + 9 m[2,1,36]
   + 11 m[2,1,37] + 5 m[2,1,38] - 2 m[2,1,39] - 50000 c[2,9,-1.0]
   >= -49992
 R724: - m[2,0,36] + 2 m[2,0,37] + 6649 m[2,0,38] - 6646 m[2,0,39]
   - 6647 m[2,1,37] - 2 m[2,1,38] + 3 m[2,1,39] - 50000 c[2,9,-1.0]
   >= -56647
 R725: 3 m[2,0,36] + 3 m[2,0,37] + 7 m[2,0,38] + 7 m[2,0,39] + 4 m[2,1,37]
   - m[2,1,38] - m[2,1,39] - 50000 c[2,9,-1.0] >= -49995
 R726: 4 m[2,0,36] - 6 m[2,0,37] + 15 m[2,0,38] + 2 m[2,0,39] - m[2,1,36]
   - 8 m[2,1,37] + 16 m[2,1,38] + 6 m[2,1,39] - 50000 c[2,9,-1.0]
   >= -49999
 R727: 3 m[2,0,36] - 4 m[2,0,37] - 16 m[2,0,38] - 9 m[2,1,36]
   + 20 m[2,1,37] + 4 m[2,1,38] + 8 m[2,1,39] - 50000 c[2,9,-1.0]
   >= -50009
 R728: c[2,10,0.0] + c[2,10,-3.0] + c[2,10,-2.0] + c[2,10,-1.41504]
   + c[2,10,-1.0] = 1
 R729: - m[2,0,40] - m[2,0,41] - m[2,0,42] - m[2,0,43] - m[2,1,40]
   - m[2,1,41] - m[2,1,42] - m[2,1,43] - 50000 c[2,10,0.0] >= -50000
 R730: c[2,10,-3.0] = 0
 R731: - m[2,0,42] - m[2,0,43] - m[2,1,40] - m[2,1,41] - 50000 c[2,10,-2.0]
   >= -50003
 R732: m[2,0,42] + 2 m[2,1,40] + 3 m[2,1,41] - 50000 c[2,10,-2.0]
   >= -49997
 R733: 2 m[2,0,42] + 3 m[2,0,43] + 2 m[2,1,40] + m[2,1,41]
   - 50000 c[2,10,-2.0] >= -49996
 R734: c[2,10,-1.41504] = 0
 R735: - m[2,0,40] - 2 m[2,0,41] - 6649 m[2,0,42] + 6645 m[2,0,43]
   - 6645 m[2,1,40] - 4 m[2,1,41] - 2 m[2,1,42] - 3 m[2,1,43]
   - 50000 c[2,10,-1.0] >= -56656
 R736: - 4 m[2,0,40] - 7 m[2,0,41] + 2 m[2,0,42] - m[2,0,43] - m[2,1,40]
   + 2 m[2,1,41] - 6 m[2,1,42] - 6 m[2,1,43] - 50000 c[2,10,-1.0]
   >= -50018
 R737: 1898 m[2,0,40] + 2848 m[2,0,41] + 1901 m[2,0,42] - 6649 m[2,0,43]
   + 6647 m[2,1,40] - 5698 m[2,1,41] + 1899 m[2,1,42] + 2849 m[2,1,43]
   - 50000 c[2,10,-1.0] >= -50951
 R738: - m[2,0,40] + 11 m[2,0,41] + 5 m[2,0,42] + 9 m[2,1,40]
   + 11 m[2,1,41] + 5 m[2,1,42] - 2 m[2,1,43] - 50000 c[2,10,-1.0]
   >= -49992
 R739: - m[2,0,40] + 2 m[2,0,41] + 6649 m[2,0,42] - 6646 m[2,0,43]
   - 6647 m[2,1,41] - 2 m[2,1,42] + 3 m[2,1,43] - 50000 c[2,10,-1.0]
   >= -56647
 R740: 3 m[2,0,40] + 3 m[2,0,41] + 7 m[2,0,42] + 7 m[2,0,43] + 4 m[2,1,41]
   - m[2,1,42] - m[2,1,43] - 50000 c[2,10,-1.0] >= -49995
 R741: 4 m[2,0,40] - 6 m[2,0,41] + 15 m[2,0,42] + 2 m[2,0,43] - m[2,1,40]
   - 8 m[2,1,41] + 16 m[2,1,42] + 6 m[2,1,43] - 50000 c[2,10,-1.0]
   >= -49999
 R742: 3 m[2,0,40] - 4 m[2,0,41] - 16 m[2,0,42] - 9 m[2,1,40]
   + 20 m[2,1,41] + 4 m[2,1,42] + 8 m[2,1,43] - 50000 c[2,10,-1.0]
   >= -50009
 R743: c[2,11,0.0] + c[2,11,-3.0] + c[2,11,-2.0] + c[2,11,-1.41504]
   + c[2,11,-1.0] = 1
 R744: c[2,11,0.0] = 0
 R745: - m[2,0,45] - m[2,0,47] - m[2,1,46] - 50000 c[2,11,-3.0] >= -50002
 R746: m[2,0,45] + m[2,0,47] - m[2,1,46] - 50000 c[2,11,-3.0] >= -50000
 R747: - m[2,0,45] + m[2,0,47] + m[2,1,46] - 50000 c[2,11,-3.0] >= -50000
 R748: m[2,0,45] - m[2,0,47] + m[2,1,46] - 50000 c[2,11,-3.0] >= -50000
 R749: c[2,11,-2.0] = 0
 R750: c[2,11,-1.41504] = 0
 R751: c[2,11,-1.0] = 0
 R752: c[2,12,0.0] + c[2,12,-3.0] + c[2,12,-2.0] + c[2,12,-1.41504]
   + c[2,12,-1.0] = 1
 R753: - m[2,0,48] - m[2,0,49] - m[2,0,50] - m[2,0,51] - m[2,1,48]
   - m[2,1,49] - m[2,1,50] - m[2,1,51] - 50000 c[2,12,0.0] >= -50000
 R754: c[2,12,-3.0] = 0
 R755: - m[2,0,50] - m[2,0,51] - m[2,1,48] - m[2,1,49] - 50000 c[2,12,-2.0]
   >= -50003
 R756: m[2,0,50] + 2 m[2,1,48] + 3 m[2,1,49] - 50000 c[2,12,-2.0]
   >= -49997
 R757: 2 m[2,0,50] + 3 m[2,0,51] + 2 m[2,1,48] + m[2,1,49]
   - 50000 c[2,12,-2.0] >= -49996
 R758: c[2,12,-1.41504] = 0
 R759: - m[2,0,48] - 2 m[2,0,49] - 6649 m[2,0,50] + 6645 m[2,0,51]
   - 6645 m[2,1,48] - 4 m[2,1,49] - 2 m[2,1,50] - 3 m[2,1,51]
   - 50000 c[2,12,-1.0] >= -56656
 R760: - 4 m[2,0,48] - 7 m[2,0,49] + 2 m[2,0,50] - m[2,0,51] - m[2,1,48]
   + 2 m[2,1,49] - 6 m[2,1,50] - 6 m[2,1,51] - 50000 c[2,12,-1.0]
   >= -50018
 R761: 1898 m[2,0,48] + 2848 m[2,0,49] + 1901 m[2,0,50] - 6649 m[2,0,51]
   + 6647 m[2,1,48] - 5698 m[2,1,49] + 1899 m[2,1,50] + 2849 m[2,1,51]
   - 50000 c[2,12,-1.0] >= -50951
 R762: - m[2,0,48] + 11 m[2,0,49] + 5 m[2,0,50] + 9 m[2,1,48]
   + 11 m[2,1,49] + 5 m[2,1,50] - 2 m[2,1,51] - 50000 c[2,12,-1.0]
   >= -49992
 R763: - m[2,0,48] + 2 m[2,0,49] + 6649 m[2,0,50] - 6646 m[2,0,51]
   - 6647 m[2,1,49] - 2 m[2,1,50] + 3 m[2,1,51] - 50000 c[2,12,-1.0]
   >= -56647
 R764: 3 m[2,0,48] + 3 m[2,0,49] + 7 m[2,0,50] + 7 m[2,0,51] + 4 m[2,1,49]
   - m[2,1,50] - m[2,1,51] - 50000 c[2,12,-1.0] >= -49995
 R765: 4 m[2,0,48] - 6 m[2,0,49] + 15 m[2,0,50] + 2 m[2,0,51] - m[2,1,48]
   - 8 m[2,1,49] + 16 m[2,1,50] + 6 m[2,1,51] - 50000 c[2,12,-1.0]
   >= -49999
 R766: 3 m[2,0,48] - 4 m[2,0,49] - 16 m[2,0,50] - 9 m[2,1,48]
   + 20 m[2,1,49] + 4 m[2,1,50] + 8 m[2,1,51] - 50000 c[2,12,-1.0]
   >= -50009
 R767: c[2,13,0.0] + c[2,13,-3.0] + c[2,13,-2.0] + c[2,13,-1.41504]
   + c[2,13,-1.0] = 1
 R768: - m[2,0,52] - m[2,0,53] - m[2,0,54] - m[2,0,55] - m[2,1,52]
   - m[2,1,53] - m[2,1,54] - m[2,1,55] - 50000 c[2,13,0.0] >= -50000
 R769: c[2,13,-3.0] = 0
 R770: - m[2,0,54] - m[2,0,55] - m[2,1,52] - m[2,1,53] - 50000 c[2,13,-2.0]
   >= -50003
 R771: m[2,0,54] + 2 m[2,1,52] + 3 m[2,1,53] - 50000 c[2,13,-2.0]
   >= -49997
 R772: 2 m[2,0,54] + 3 m[2,0,55] + 2 m[2,1,52] + m[2,1,53]
   - 50000 c[2,13,-2.0] >= -49996
 R773: c[2,13,-1.41504] = 0
 R774: - m[2,0,52] - 2 m[2,0,53] - 6649 m[2,0,54] + 6645 m[2,0,55]
   - 6645 m[2,1,52] - 4 m[2,1,53] - 2 m[2,1,54] - 3 m[2,1,55]
   - 50000 c[2,13,-1.0] >= -56656
 R775: - 4 m[2,0,52] - 7 m[2,0,53] + 2 m[2,0,54] - m[2,0,55] - m[2,1,52]
   + 2 m[2,1,53] - 6 m[2,1,54] - 6 m[2,1,55] - 50000 c[2,13,-1.0]
   >= -50018
 R776: 1898 m[2,0,52] + 2848 m[2,0,53] + 1901 m[2,0,54] - 6649 m[2,0,55]
   + 6647 m[2,1,52] - 5698 m[2,1,53] + 1899 m[2,1,54] + 2849 m[2,1,55]
   - 50000 c[2,13,-1.0] >= -50951
 R777: - m[2,0,52] + 11 m[2,0,53] + 5 m[2,0,54] + 9 m[2,1,52]
   + 11 m[2,1,53] + 5 m[2,1,54] - 2 m[2,1,55] - 50000 c[2,13,-1.0]
   >= -49992
 R778: - m[2,0,52] + 2 m[2,0,53] + 6649 m[2,0,54] - 6646 m[2,0,55]
   - 6647 m[2,1,53] - 2 m[2,1,54] + 3 m[2,1,55] - 50000 c[2,13,-1.0]
   >= -56647
 R779: 3 m[2,0,52] + 3 m[2,0,53] + 7 m[2,0,54] + 7 m[2,0,55] + 4 m[2,1,53]
   - m[2,1,54] - m[2,1,55] - 50000 c[2,13,-1.0] >= -49995
 R780: 4 m[2,0,52] - 6 m[2,0,53] + 15 m[2,0,54] + 2 m[2,0,55] - m[2,1,52]
   - 8 m[2,1,53] + 16 m[2,1,54] + 6 m[2,1,55] - 50000 c[2,13,-1.0]
   >= -49999
 R781: 3 m[2,0,52] - 4 m[2,0,53] - 16 m[2,0,54] - 9 m[2,1,52]
   + 20 m[2,1,53] + 4 m[2,1,54] + 8 m[2,1,55] - 50000 c[2,13,-1.0]
   >= -50009
 R782: c[2,14,0.0] + c[2,14,-3.0] + c[2,14,-2.0] + c[2,14,-1.41504]
   + c[2,14,-1.0] = 1
 R783: - m[2,0,56] - m[2,0,57] - m[2,0,58] - m[2,0,59] - m[2,1,56]
   - m[2,1,57] - m[2,1,58] - m[2,1,59] - 50000 c[2,14,0.0] >= -50000
 R784: c[2,14,-3.0] = 0
 R785: - m[2,0,58] - m[2,0,59] - m[2,1,56] - m[2,1,57] - 50000 c[2,14,-2.0]
   >= -50003
 R786: m[2,0,58] + 2 m[2,1,56] + 3 m[2,1,57] - 50000 c[2,14,-2.0]
   >= -49997
 R787: 2 m[2,0,58] + 3 m[2,0,59] + 2 m[2,1,56] + m[2,1,57]
   - 50000 c[2,14,-2.0] >= -49996
 R788: c[2,14,-1.41504] = 0
 R789: - m[2,0,56] - 2 m[2,0,57] - 6649 m[2,0,58] + 6645 m[2,0,59]
   - 6645 m[2,1,56] - 4 m[2,1,57] - 2 m[2,1,58] - 3 m[2,1,59]
   - 50000 c[2,14,-1.0] >= -56656
 R790: - 4 m[2,0,56] - 7 m[2,0,57] + 2 m[2,0,58] - m[2,0,59] - m[2,1,56]
   + 2 m[2,1,57] - 6 m[2,1,58] - 6 m[2,1,59] - 50000 c[2,14,-1.0]
   >= -50018
 R791: 1898 m[2,0,56] + 2848 m[2,0,57] + 1901 m[2,0,58] - 6649 m[2,0,59]
   + 6647 m[2,1,56] - 5698 m[2,1,57] + 1899 m[2,1,58] + 2849 m[2,1,59]
   - 50000 c[2,14,-1.0] >= -50951
 R792: - m[2,0,56] + 11 m[2,0,57] + 5 m[2,0,58] + 9 m[2,1,56]
   + 11 m[2,1,57] + 5 m[2,1,58] - 2 m[2,1,59] - 50000 c[2,14,-1.0]
   >= -49992
 R793: - m[2,0,56] + 2 m[2,0,57] + 6649 m[2,0,58] - 6646 m[2,0,59]
   - 6647 m[2,1,57] - 2 m[2,1,58] + 3 m[2,1,59] - 50000 c[2,14,-1.0]
   >= -56647
 R794: 3 m[2,0,56] + 3 m[2,0,57] + 7 m[2,0,58] + 7 m[2,0,59] + 4 m[2,1,57]
   - m[2,1,58] - m[2,1,59] - 50000 c[2,14,-1.0] >= -49995
 R795: 4 m[2,0,56] - 6 m[2,0,57] + 15 m[2,0,58] + 2 m[2,0,59] - m[2,1,56]
   - 8 m[2,1,57] + 16 m[2,1,58] + 6 m[2,1,59] - 50000 c[2,14,-1.0]
   >= -49999
 R796: 3 m[2,0,56] - 4 m[2,0,57] - 16 m[2,0,58] - 9 m[2,1,56]
   + 20 m[2,1,57] + 4 m[2,1,58] + 8 m[2,1,59] - 50000 c[2,14,-1.0]
   >= -50009
 R797: c[2,15,0.0] + c[2,15,-3.0] + c[2,15,-2.0] + c[2,15,-1.41504]
   + c[2,15,-1.0] = 1
 R798: - m[2,0,60] - m[2,0,61] - m[2,0,62] - m[2,0,63] - m[2,1,60]
   - m[2,1,61] - m[2,1,62] - m[2,1,63] - 50000 c[2,15,0.0] >= -50000
 R799: c[2,15,-3.0] = 0
 R800: - m[2,0,62] - m[2,0,63] - m[2,1,60] - m[2,1,61] - 50000 c[2,15,-2.0]
   >= -50003
 R801: m[2,0,62] + 2 m[2,1,60] + 3 m[2,1,61] - 50000 c[2,15,-2.0]
   >= -49997
 R802: 2 m[2,0,62] + 3 m[2,0,63] + 2 m[2,1,60] + m[2,1,61]
   - 50000 c[2,15,-2.0] >= -49996
 R803: c[2,15,-1.41504] = 0
 R804: - m[2,0,60] - 2 m[2,0,61] - 6649 m[2,0,62] + 6645 m[2,0,63]
   - 6645 m[2,1,60] - 4 m[2,1,61] - 2 m[2,1,62] - 3 m[2,1,63]
   - 50000 c[2,15,-1.0] >= -56656
 R805: - 4 m[2,0,60] - 7 m[2,0,61] + 2 m[2,0,62] - m[2,0,63] - m[2,1,60]
   + 2 m[2,1,61] - 6 m[2,1,62] - 6 m[2,1,63] - 50000 c[2,15,-1.0]
   >= -50018
 R806: 1898 m[2,0,60] + 2848 m[2,0,61] + 1901 m[2,0,62] - 6649 m[2,0,63]
   + 6647 m[2,1,60] - 5698 m[2,1,61] + 1899 m[2,1,62] + 2849 m[2,1,63]
   - 50000 c[2,15,-1.0] >= -50951
 R807: - m[2,0,60] + 11 m[2,0,61] + 5 m[2,0,62] + 9 m[2,1,60]
   + 11 m[2,1,61] + 5 m[2,1,62] - 2 m[2,1,63] - 50000 c[2,15,-1.0]
   >= -49992
 R808: - m[2,0,60] + 2 m[2,0,61] + 6649 m[2,0,62] - 6646 m[2,0,63]
   - 6647 m[2,1,61] - 2 m[2,1,62] + 3 m[2,1,63] - 50000 c[2,15,-1.0]
   >= -56647
 R809: 3 m[2,0,60] + 3 m[2,0,61] + 7 m[2,0,62] + 7 m[2,0,63] + 4 m[2,1,61]
   - m[2,1,62] - m[2,1,63] - 50000 c[2,15,-1.0] >= -49995
 R810: 4 m[2,0,60] - 6 m[2,0,61] + 15 m[2,0,62] + 2 m[2,0,63] - m[2,1,60]
   - 8 m[2,1,61] + 16 m[2,1,62] + 6 m[2,1,63] - 50000 c[2,15,-1.0]
   >= -49999
 R811: 3 m[2,0,60] - 4 m[2,0,61] - 16 m[2,0,62] - 9 m[2,1,60]
   + 20 m[2,1,61] + 4 m[2,1,62] + 8 m[2,1,63] - 50000 c[2,15,-1.0]
   >= -50009
 R812: c[3,0,0.0] + c[3,0,-3.0] + c[3,0,-2.0] + c[3,0,-1.41504]
   + c[3,0,-1.0] = 1
 R813: - m[3,0,0] - m[3,0,1] - m[3,0,2] - m[3,0,3] - m[3,1,0] - m[3,1,1]
   - m[3,1,2] - m[3,1,3] - 50000 c[3,0,0.0] >= -50000
 R814: c[3,0,-3.0] = 0
 R815: - m[3,0,2] - m[3,0,3] - m[3,1,0] - m[3,1,1] - 50000 c[3,0,-2.0]
   >= -50003
 R816: m[3,0,2] + 2 m[3,1,0] + 3 m[3,1,1] - 50000 c[3,0,-2.0] >= -49997
 R817: 2 m[3,0,2] + 3 m[3,0,3] + 2 m[3,1,0] + m[3,1,1] - 50000 c[3,0,-2.0]
   >= -49996
 R818: c[3,0,-1.41504] = 0
 R819: - m[3,0,0] - 2 m[3,0,1] - 6649 m[3,0,2] + 6645 m[3,0,3]
   - 6645 m[3,1,0] - 4 m[3,1,1] - 2 m[3,1,2] - 3 m[3,1,3]
   - 50000 c[3,0,-1.0] >= -56656
 R820: - 4 m[3,0,0] - 7 m[3,0,1] + 2 m[3,0,2] - m[3,0,3] - m[3,1,0]
   + 2 m[3,1,1] - 6 m[3,1,2] - 6 m[3,1,3] - 50000 c[3,0,-1.0] >= -50018
 R821: 1898 m[3,0,0] + 2848 m[3,0,1] + 1901 m[3,0,2] - 6649 m[3,0,3]
   + 6647 m[3,1,0] - 5698 m[3,1,1] + 1899 m[3,1,2] + 2849 m[3,1,3]
   - 50000 c[3,0,-1.0] >= -50951
 R822: - m[3,0,0] + 11 m[3,0,1] + 5 m[3,0,2] + 9 m[3,1,0] + 11 m[3,1,1]
   + 5 m[3,1,2] - 2 m[3,1,3] - 50000 c[3,0,-1.0] >= -49992
 R823: - m[3,0,0] + 2 m[3,0,1] + 6649 m[3,0,2] - 6646 m[3,0,3]
   - 6647 m[3,1,1] - 2 m[3,1,2] + 3 m[3,1,3] - 50000 c[3,0,-1.0] >= -56647
 R824: 3 m[3,0,0] + 3 m[3,0,1] + 7 m[3,0,2] + 7 m[3,0,3] + 4 m[3,1,1]
   - m[3,1,2] - m[3,1,3] - 50000 c[3,0,-1.0] >= -49995
 R825: 4 m[3,0,0] - 6 m[3,0,1] + 15 m[3,0,2] + 2 m[3,0,3] - m[3,1,0]
   - 8 m[3,1,1] + 16 m[3,1,2] + 6 m[3,1,3] - 50000 c[3,0,-1.0] >= -49999
 R826: 3 m[3,0,0] - 4 m[3,0,1] - 16 m[3,0,2] - 9 m[3,1,0] + 20 m[3,1,1]
   + 4 m[3,1,2] + 8 m[3,1,3] - 50000 c[3,0,-1.0] >= -50009
 R827: c[3,1,0.0] + c[3,1,-3.0] + c[3,1,-2.0] + c[3,1,-1.41504]
   + c[3,1,-1.0] = 1
 R828: - m[3,0,4] - m[3,0,5] - m[3,0,6] - m[3,0,7] - m[3,1,4] - m[3,1,5]
   - m[3,1,6] - m[3,1,7] - 50000 c[3,1,0.0] >= -50000
 R829: c[3,1,-3.0] = 0
 R830: - m[3,0,6] - m[3,0,7] - m[3,1,4] - m[3,1,5] - 50000 c[3,1,-2.0]
   >= -50003
 R831: m[3,0,6] + 2 m[3,1,4] + 3 m[3,1,5] - 50000 c[3,1,-2.0] >= -49997
 R832: 2 m[3,0,6] + 3 m[3,0,7] + 2 m[3,1,4] + m[3,1,5] - 50000 c[3,1,-2.0]
   >= -49996
 R833: c[3,1,-1.41504] = 0
 R834: - m[3,0,4] - 2 m[3,0,5] - 6649 m[3,0,6] + 6645 m[3,0,7]
   - 6645 m[3,1,4] - 4 m[3,1,5] - 2 m[3,1,6] - 3 m[3,1,7]
   - 50000 c[3,1,-1.0] >= -56656
 R835: - 4 m[3,0,4] - 7 m[3,0,5] + 2 m[3,0,6] - m[3,0,7] - m[3,1,4]
   + 2 m[3,1,5] - 6 m[3,1,6] - 6 m[3,1,7] - 50000 c[3,1,-1.0] >= -50018
 R836: 1898 m[3,0,4] + 2848 m[3,0,5] + 1901 m[3,0,6] - 6649 m[3,0,7]
   + 6647 m[3,1,4] - 5698 m[3,1,5] + 1899 m[3,1,6] + 2849 m[3,1,7]
   - 50000 c[3,1,-1.0] >= -50951
 R837: - m[3,0,4] + 11 m[3,0,5] + 5 m[3,0,6] + 9 m[3,1,4] + 11 m[3,1,5]
   + 5 m[3,1,6] - 2 m[3,1,7] - 50000 c[3,1,-1.0] >= -49992
 R838: - m[3,0,4] + 2 m[3,0,5] + 6649 m[3,0,6] - 6646 m[3,0,7]
   - 6647 m[3,1,5] - 2 m[3,1,6] + 3 m[3,1,7] - 50000 c[3,1,-1.0] >= -56647
 R839: 3 m[3,0,4] + 3 m[3,0,5] + 7 m[3,0,6] + 7 m[3,0,7] + 4 m[3,1,5]
   - m[3,1,6] - m[3,1,7] - 50000 c[3,1,-1.0] >= -49995
 R840: 4 m[3,0,4] - 6 m[3,0,5] + 15 m[3,0,6] + 2 m[3,0,7] - m[3,1,4]
   - 8 m[3,1,5] + 16 m[3,1,6] + 6 m[3,1,7] - 50000 c[3,1,-1.0] >= -49999
 R841: 3 m[3,0,4] - 4 m[3,0,5] - 16 m[3,0,6] - 9 m[3,1,4] + 20 m[3,1,5]
   + 4 m[3,1,6] + 8 m[3,1,7] - 50000 c[3,1,-1.0] >= -50009
 R842: c[3,2,0.0] + c[3,2,-3.0] + c[3,2,-2.0] + c[3,2,-1.41504]
   + c[3,2,-1.0] = 1
 R843: - m[3,0,8] - m[3,0,9] - m[3,0,10] - m[3,0,11] - m[3,1,8] - m[3,1,9]
   - m[3,1,10] - m[3,1,11] - 50000 c[3,2,0.0] >= -50000
 R844: c[3,2,-3.0] = 0
 R845: - m[3,0,10] - m[3,0,11] - m[3,1,8] - m[3,1,9] - 50000 c[3,2,-2.0]
   >= -50003
 R846: m[3,0,10] + 2 m[3,1,8] + 3 m[3,1,9] - 50000 c[3,2,-2.0] >= -49997
 R847: 2 m[3,0,10] + 3 m[3,0,11] + 2 m[3,1,8] + m[3,1,9]
   - 50000 c[3,2,-2.0] >= -49996
 R848: c[3,2,-1.41504] = 0
 R849: - m[3,0,8] - 2 m[3,0,9] - 6649 m[3,0,10] + 6645 m[3,0,11]
   - 6645 m[3,1,8] - 4 m[3,1,9] - 2 m[3,1,10] - 3 m[3,1,11]
   - 50000 c[3,2,-1.0] >= -56656
 R850: - 4 m[3,0,8] - 7 m[3,0,9] + 2 m[3,0,10] - m[3,0,11] - m[3,1,8]
   + 2 m[3,1,9] - 6 m[3,1,10] - 6 m[3,1,11] - 50000 c[3,2,-1.0] >= -50018
 R851: 1898 m[3,0,8] + 2848 m[3,0,9] + 1901 m[3,0,10] - 6649 m[3,0,11]
   + 6647 m[3,1,8] - 5698 m[3,1,9] + 1899 m[3,1,10] + 2849 m[3,1,11]
   - 50000 c[3,2,-1.0] >= -50951
 R852: - m[3,0,8] + 11 m[3,0,9] + 5 m[3,0,10] + 9 m[3,1,8] + 11 m[3,1,9]
   + 5 m[3,1,10] - 2 m[3,1,11] - 50000 c[3,2,-1.0] >= -49992
 R853: - m[3,0,8] + 2 m[3,0,9] + 6649 m[3,0,10] - 6646 m[3,0,11]
   - 6647 m[3,1,9] - 2 m[3,1,10] + 3 m[3,1,11] - 50000 c[3,2,-1.0]
   >= -56647
 R854: 3 m[3,0,8] + 3 m[3,0,9] + 7 m[3,0,10] + 7 m[3,0,11] + 4 m[3,1,9]
   - m[3,1,10] - m[3,1,11] - 50000 c[3,2,-1.0] >= -49995
 R855: 4 m[3,0,8] - 6 m[3,0,9] + 15 m[3,0,10] + 2 m[3,0,11] - m[3,1,8]
   - 8 m[3,1,9] + 16 m[3,1,10] + 6 m[3,1,11] - 50000 c[3,2,-1.0] >= -49999
 R856: 3 m[3,0,8] - 4 m[3,0,9] - 16 m[3,0,10] - 9 m[3,1,8] + 20 m[3,1,9]
   + 4 m[3,1,10] + 8 m[3,1,11] - 50000 c[3,2,-1.0] >= -50009
 R857: c[3,3,0.0] + c[3,3,-3.0] + c[3,3,-2.0] + c[3,3,-1.41504]
   + c[3,3,-1.0] = 1
 R858: - m[3,0,12] - m[3,0,13] - m[3,0,14] - m[3,0,15] - m[3,1,12]
   - m[3,1,13] - m[3,1,14] - m[3,1,15] - 50000 c[3,3,0.0] >= -50000
 R859: c[3,3,-3.0] = 0
 R860: - m[3,0,14] - m[3,0,15] - m[3,1,12] - m[3,1,13] - 50000 c[3,3,-2.0]
   >= -50003
 R861: m[3,0,14] + 2 m[3,1,12] + 3 m[3,1,13] - 50000 c[3,3,-2.0] >= -49997
 R862: 2 m[3,0,14] + 3 m[3,0,15] + 2 m[3,1,12] + m[3,1,13]
   - 50000 c[3,3,-2.0] >= -49996
 R863: c[3,3,-1.41504] = 0
 R864: - m[3,0,12] - 2 m[3,0,13] - 6649 m[3,0,14] + 6645 m[3,0,15]
   - 6645 m[3,1,12] - 4 m[3,1,13] - 2 m[3,1,14] - 3 m[3,1,15]
   - 50000 c[3,3,-1.0] >= -56656
 R865: - 4 m[3,0,12] - 7 m[3,0,13] + 2 m[3,0,14] - m[3,0,15] - m[3,1,12]
   + 2 m[3,1,13] - 6 m[3,1,14] - 6 m[3,1,15] - 50000 c[3,3,-1.0] >= -50018
 R866: 1898 m[3,0,12] + 2848 m[3,0,13] + 1901 m[3,0,14] - 6649 m[3,0,15]
   + 6647 m[3,1,12] - 5698 m[3,1,13] + 1899 m[3,1,14] + 2849 m[3,1,15]
   - 50000 c[3,3,-1.0] >= -50951
 R867: - m[3,0,12] + 11 m[3,0,13] + 5 m[3,0,14] + 9 m[3,1,12]
   + 11 m[3,1,13] + 5 m[3,1,14] - 2 m[3,1,15] - 50000 c[3,3,-1.0]
   >= -49992
 R868: - m[3,0,12] + 2 m[3,0,13] + 6649 m[3,0,14] - 6646 m[3,0,15]
   - 6647 m[3,1,13] - 2 m[3,1,14] + 3 m[3,1,15] - 50000 c[3,3,-1.0]
   >= -56647
 R869: 3 m[3,0,12] + 3 m[3,0,13] + 7 m[3,0,14] + 7 m[3,0,15] + 4 m[3,1,13]
   - m[3,1,14] - m[3,1,15] - 50000 c[3,3,-1.0] >= -49995
 R870: 4 m[3,0,12] - 6 m[3,0,13] + 15 m[3,0,14] + 2 m[3,0,15] - m[3,1,12]
   - 8 m[3,1,13] + 16 m[3,1,14] + 6 m[3,1,15] - 50000 c[3,3,-1.0]
   >= -49999
 R871: 3 m[3,0,12] - 4 m[3,0,13] - 16 m[3,0,14] - 9 m[3,1,12]
   + 20 m[3,1,13] + 4 m[3,1,14] + 8 m[3,1,15] - 50000 c[3,3,-1.0]
   >= -50009
 R872: c[3,4,0.0] + c[3,4,-3.0] + c[3,4,-2.0] + c[3,4,-1.41504]
   + c[3,4,-1.0] = 1
 R873: - m[3,0,16] - m[3,0,17] - m[3,0,18] - m[3,0,19] - m[3,1,16]
   - m[3,1,17] - m[3,1,18] - m[3,1,19] - 50000 c[3,4,0.0] >= -50000
 R874: c[3,4,-3.0] = 0
 R875: - m[3,0,18] - m[3,0,19] - m[3,1,16] - m[3,1,17] - 50000 c[3,4,-2.0]
   >= -50003
 R876: m[3,0,18] + 2 m[3,1,16] + 3 m[3,1,17] - 50000 c[3,4,-2.0] >= -49997
 R877: 2 m[3,0,18] + 3 m[3,0,19] + 2 m[3,1,16] + m[3,1,17]
   - 50000 c[3,4,-2.0] >= -49996
 R878: c[3,4,-1.41504] = 0
 R879: - m[3,0,16] - 2 m[3,0,17] - 6649 m[3,0,18] + 6645 m[3,0,19]
   - 6645 m[3,1,16] - 4 m[3,1,17] - 2 m[3,1,18] - 3 m[3,1,19]
   - 50000 c[3,4,-1.0] >= -56656
 R880: - 4 m[3,0,16] - 7 m[3,0,17] + 2 m[3,0,18] - m[3,0,19] - m[3,1,16]
   + 2 m[3,1,17] - 6 m[3,1,18] - 6 m[3,1,19] - 50000 c[3,4,-1.0] >= -50018
 R881: 1898 m[3,0,16] + 2848 m[3,0,17] + 1901 m[3,0,18] - 6649 m[3,0,19]
   + 6647 m[3,1,16] - 5698 m[3,1,17] + 1899 m[3,1,18] + 2849 m[3,1,19]
   - 50000 c[3,4,-1.0] >= -50951
 R882: - m[3,0,16] + 11 m[3,0,17] + 5 m[3,0,18] + 9 m[3,1,16]
   + 11 m[3,1,17] + 5 m[3,1,18] - 2 m[3,1,19] - 50000 c[3,4,-1.0]
   >= -49992
 R883: - m[3,0,16] + 2 m[3,0,17] + 6649 m[3,0,18] - 6646 m[3,0,19]
   - 6647 m[3,1,17] - 2 m[3,1,18] + 3 m[3,1,19] - 50000 c[3,4,-1.0]
   >= -56647
 R884: 3 m[3,0,16] + 3 m[3,0,17] + 7 m[3,0,18] + 7 m[3,0,19] + 4 m[3,1,17]
   - m[3,1,18] - m[3,1,19] - 50000 c[3,4,-1.0] >= -49995
 R885: 4 m[3,0,16] - 6 m[3,0,17] + 15 m[3,0,18] + 2 m[3,0,19] - m[3,1,16]
   - 8 m[3,1,17] + 16 m[3,1,18] + 6 m[3,1,19] - 50000 c[3,4,-1.0]
   >= -49999
 R886: 3 m[3,0,16] - 4 m[3,0,17] - 16 m[3,0,18] - 9 m[3,1,16]
   + 20 m[3,1,17] + 4 m[3,1,18] + 8 m[3,1,19] - 50000 c[3,4,-1.0]
   >= -50009
 R887: c[3,5,0.0] + c[3,5,-3.0] + c[3,5,-2.0] + c[3,5,-1.41504]
   + c[3,5,-1.0] = 1
 R888: - m[3,0,20] - m[3,0,21] - m[3,0,22] - m[3,0,23] - m[3,1,20]
   - m[3,1,21] - m[3,1,22] - m[3,1,23] - 50000 c[3,5,0.0] >= -50000
 R889: c[3,5,-3.0] = 0
 R890: - m[3,0,22] - m[3,0,23] - m[3,1,20] - m[3,1,21] - 50000 c[3,5,-2.0]
   >= -50003
 R891: m[3,0,22] + 2 m[3,1,20] + 3 m[3,1,21] - 50000 c[3,5,-2.0] >= -49997
 R892: 2 m[3,0,22] + 3 m[3,0,23] + 2 m[3,1,20] + m[3,1,21]
   - 50000 c[3,5,-2.0] >= -49996
 R893: c[3,5,-1.41504] = 0
 R894: - m[3,0,20] - 2 m[3,0,21] - 6649 m[3,0,22] + 6645 m[3,0,23]
   - 6645 m[3,1,20] - 4 m[3,1,21] - 2 m[3,1,22] - 3 m[3,1,23]
   - 50000 c[3,5,-1.0] >= -56656
 R895: - 4 m[3,0,20] - 7 m[3,0,21] + 2 m[3,0,22] - m[3,0,23] - m[3,1,20]
   + 2 m[3,1,21] - 6 m[3,1,22] - 6 m[3,1,23] - 50000 c[3,5,-1.0] >= -50018
 R896: 1898 m[3,0,20] + 2848 m[3,0,21] + 1901 m[3,0,22] - 6649 m[3,0,23]
   + 6647 m[3,1,20] - 5698 m[3,1,21] + 1899 m[3,1,22] + 2849 m[3,1,23]
   - 50000 c[3,5,-1.0] >= -50951
 R897: - m[3,0,20] + 11 m[3,0,21] + 5 m[3,0,22] + 9 m[3,1,20]
   + 11 m[3,1,21] + 5 m[3,1,22] - 2 m[3,1,23] - 50000 c[3,5,-1.0]
   >= -49992
 R898: - m[3,0,20] + 2 m[3,0,21] + 6649 m[3,0,22] - 6646 m[3,0,23]
   - 6647 m[3,1,21] - 2 m[3,1,22] + 3 m[3,1,23] - 50000 c[3,5,-1.0]
   >= -56647
 R899: 3 m[3,0,20] + 3 m[3,0,21] + 7 m[3,0,22] + 7 m[3,0,23] + 4 m[3,1,21]
   - m[3,1,22] - m[3,1,23] - 50000 c[3,5,-1.0] >= -49995
 R900: 4 m[3,0,20] - 6 m[3,0,21] + 15 m[3,0,22] + 2 m[3,0,23] - m[3,1,20]
   - 8 m[3,1,21] + 16 m[3,1,22] + 6 m[3,1,23] - 50000 c[3,5,-1.0]
   >= -49999
 R901: 3 m[3,0,20] - 4 m[3,0,21] - 16 m[3,0,22] - 9 m[3,1,20]
   + 20 m[3,1,21] + 4 m[3,1,22] + 8 m[3,1,23] - 50000 c[3,5,-1.0]
   >= -50009
 R902: c[3,6,0.0] + c[3,6,-3.0] + c[3,6,-2.0] + c[3,6,-1.41504]
   + c[3,6,-1.0] = 1
 R903: - m[3,0,24] - m[3,0,25] - m[3,0,26] - m[3,0,27] - m[3,1,24]
   - m[3,1,25] - m[3,1,26] - m[3,1,27] - 50000 c[3,6,0.0] >= -50000
 R904: c[3,6,-3.0] = 0
 R905: - m[3,0,26] - m[3,0,27] - m[3,1,24] - m[3,1,25] - 50000 c[3,6,-2.0]
   >= -50003
 R906: m[3,0,26] + 2 m[3,1,24] + 3 m[3,1,25] - 50000 c[3,6,-2.0] >= -49997
 R907: 2 m[3,0,26] + 3 m[3,0,27] + 2 m[3,1,24] + m[3,1,25]
   - 50000 c[3,6,-2.0] >= -49996
 R908: c[3,6,-1.41504] = 0
 R909: - m[3,0,24] - 2 m[3,0,25] - 6649 m[3,0,26] + 6645 m[3,0,27]
   - 6645 m[3,1,24] - 4 m[3,1,25] - 2 m[3,1,26] - 3 m[3,1,27]
   - 50000 c[3,6,-1.0] >= -56656
 R910: - 4 m[3,0,24] - 7 m[3,0,25] + 2 m[3,0,26] - m[3,0,27] - m[3,1,24]
   + 2 m[3,1,25] - 6 m[3,1,26] - 6 m[3,1,27] - 50000 c[3,6,-1.0] >= -50018
 R911: 1898 m[3,0,24] + 2848 m[3,0,25] + 1901 m[3,0,26] - 6649 m[3,0,27]
   + 6647 m[3,1,24] - 5698 m[3,1,25] + 1899 m[3,1,26] + 2849 m[3,1,27]
   - 50000 c[3,6,-1.0] >= -50951
 R912: - m[3,0,24] + 11 m[3,0,25] + 5 m[3,0,26] + 9 m[3,1,24]
   + 11 m[3,1,25] + 5 m[3,1,26] - 2 m[3,1,27] - 50000 c[3,6,-1.0]
   >= -49992
 R913: - m[3,0,24] + 2 m[3,0,25] + 6649 m[3,0,26] - 6646 m[3,0,27]
   - 6647 m[3,1,25] - 2 m[3,1,26] + 3 m[3,1,27] - 50000 c[3,6,-1.0]
   >= -56647
 R914: 3 m[3,0,24] + 3 m[3,0,25] + 7 m[3,0,26] + 7 m[3,0,27] + 4 m[3,1,25]
   - m[3,1,26] - m[3,1,27] - 50000 c[3,6,-1.0] >= -49995
 R915: 4 m[3,0,24] - 6 m[3,0,25] + 15 m[3,0,26] + 2 m[3,0,27] - m[3,1,24]
   - 8 m[3,1,25] + 16 m[3,1,26] + 6 m[3,1,27] - 50000 c[3,6,-1.0]
   >= -49999
 R916: 3 m[3,0,24] - 4 m[3,0,25] - 16 m[3,0,26] - 9 m[3,1,24]
   + 20 m[3,1,25] + 4 m[3,1,26] + 8 m[3,1,27] - 50000 c[3,6,-1.0]
   >= -50009
 R917: c[3,7,0.0] + c[3,7,-3.0] + c[3,7,-2.0] + c[3,7,-1.41504]
   + c[3,7,-1.0] = 1
 R918: - m[3,0,28] - m[3,0,29] - m[3,0,30] - m[3,0,31] - m[3,1,28]
   - m[3,1,29] - m[3,1,30] - m[3,1,31] - 50000 c[3,7,0.0] >= -50000
 R919: c[3,7,-3.0] = 0
 R920: - m[3,0,30] - m[3,0,31] - m[3,1,28] - m[3,1,29] - 50000 c[3,7,-2.0]
   >= -50003
 R921: m[3,0,30] + 2 m[3,1,28] + 3 m[3,1,29] - 50000 c[3,7,-2.0] >= -49997
 R922: 2 m[3,0,30] + 3 m[3,0,31] + 2 m[3,1,28] + m[3,1,29]
   - 50000 c[3,7,-2.0] >= -49996
 R923: c[3,7,-1.41504] = 0
 R924: - m[3,0,28] - 2 m[3,0,29] - 6649 m[3,0,30] + 6645 m[3,0,31]
   - 6645 m[3,1,28] - 4 m[3,1,29] - 2 m[3,1,30] - 3 m[3,1,31]
   - 50000 c[3,7,-1.0] >= -56656
 R925: - 4 m[3,0,28] - 7 m[3,0,29] + 2 m[3,0,30] - m[3,0,31] - m[3,1,28]
   + 2 m[3,1,29] - 6 m[3,1,30] - 6 m[3,1,31] - 50000 c[3,7,-1.0] >= -50018
 R926: 1898 m[3,0,28] + 2848 m[3,0,29] + 1901 m[3,0,30] - 6649 m[3,0,31]
   + 6647 m[3,1,28] - 5698 m[3,1,29] + 1899 m[3,1,30] + 2849 m[3,1,31]
   - 50000 c[3,7,-1.0] >= -50951
 R927: - m[3,0,28] + 11 m[3,0,29] + 5 m[3,0,30] + 9 m[3,1,28]
   + 11 m[3,1,29] + 5 m[3,1,30] - 2 m[3,1,31] - 50000 c[3,7,-1.0]
   >= -49992
 R928: - m[3,0,28] + 2 m[3,0,29] + 6649 m[3,0,30] - 6646 m[3,0,31]
   - 6647 m[3,1,29] - 2 m[3,1,30] + 3 m[3,1,31] - 50000 c[3,7,-1.0]
   >= -56647
 R929: 3 m[3,0,28] + 3 m[3,0,29] + 7 m[3,0,30] + 7 m[3,0,31] + 4 m[3,1,29]
   - m[3,1,30] - m[3,1,31] - 50000 c[3,7,-1.0] >= -49995
 R930: 4 m[3,0,28] - 6 m[3,0,29] + 15 m[3,0,30] + 2 m[3,0,31] - m[3,1,28]
   - 8 m[3,1,29] + 16 m[3,1,30] + 6 m[3,1,31] - 50000 c[3,7,-1.0]
   >= -49999
 R931: 3 m[3,0,28] - 4 m[3,0,29] - 16 m[3,0,30] - 9 m[3,1,28]
   + 20 m[3,1,29] + 4 m[3,1,30] + 8 m[3,1,31] - 50000 c[3,7,-1.0]
   >= -50009
 R932: c[3,8,0.0] + c[3,8,-3.0] + c[3,8,-2.0] + c[3,8,-1.41504]
   + c[3,8,-1.0] = 1
 R933: c[3,8,0.0] = 0
 R934: c[3,8,-3.0] = 0
 R935: m[3,0,33] + 3 m[3,0,34] + 2 m[3,1,33] - m[3,1,34] - 2 m[3,1,35]
   - 50000 c[3,8,-2.0] >= -50000
 R936: - m[3,0,33] - 3 m[3,0,34] + 2 m[3,1,33] - m[3,1,34] + 2 m[3,1,35]
   - 50000 c[3,8,-2.0] >= -50002
 R937: m[3,0,33] - 3 m[3,0,34] - 2 m[3,1,33] + m[3,1,34] - 2 m[3,1,35]
   - 50000 c[3,8,-2.0] >= -50004
 R938: - m[3,0,33] + 3 m[3,0,34] - 2 m[3,1,33] + m[3,1,34] + 2 m[3,1,35]
   - 50000 c[3,8,-2.0] >= -50000
 R939: c[3,8,-1.41504] = 0
 R940: c[3,8,-1.0] = 0
 R941: c[3,9,0.0] + c[3,9,-3.0] + c[3,9,-2.0] + c[3,9,-1.41504]
   + c[3,9,-1.0] = 1
 R942: - m[3,0,36] - m[3,0,37] - m[3,0,38] - m[3,0,39] - m[3,1,36]
   - m[3,1,37] - m[3,1,38] - m[3,1,39] - 50000 c[3,9,0.0] >= -50000
 R943: c[3,9,-3.0] = 0
 R944: - m[3,0,38] - m[3,0,39] - m[3,1,36] - m[3,1,37] - 50000 c[3,9,-2.0]
   >= -50003
 R945: m[3,0,38] + 2 m[3,1,36] + 3 m[3,1,37] - 50000 c[3,9,-2.0] >= -49997
 R946: 2 m[3,0,38] + 3 m[3,0,39] + 2 m[3,1,36] + m[3,1,37]
   - 50000 c[3,9,-2.0] >= -49996
 R947: c[3,9,-1.41504] = 0
 R948: - m[3,0,36] - 2 m[3,0,37] - 6649 m[3,0,38] + 6645 m[3,0,39]
   - 6645 m[3,1,36] - 4 m[3,1,37] - 2 m[3,1,38] - 3 m[3,1,39]
   - 50000 c[3,9,-1.0] >= -56656
 R949: - 4 m[3,0,36] - 7 m[3,0,37] + 2 m[3,0,38] - m[3,0,39] - m[3,1,36]
   + 2 m[3,1,37] - 6 m[3,1,38] - 6 m[3,1,39] - 50000 c[3,9,-1.0] >= -50018
 R950: 1898 m[3,0,36] + 2848 m[3,0,37] + 1901 m[3,0,38] - 6649 m[3,0,39]
   + 6647 m[3,1,36] - 5698 m[3,1,37] + 1899 m[3,1,38] + 2849 m[3,1,39]
   - 50000 c[3,9,-1.0] >= -50951
 R951: - m[3,0,36] + 11 m[3,0,37] + 5 m[3,0,38] + 9 m[3,1,36]
   + 11 m[3,1,37] + 5 m[3,1,38] - 2 m[3,1,39] - 50000 c[3,9,-1.0]
   >= -49992
 R952: - m[3,0,36] + 2 m[3,0,37] + 6649 m[3,0,38] - 6646 m[3,0,39]
   - 6647 m[3,1,37] - 2 m[3,1,38] + 3 m[3,1,39] - 50000 c[3,9,-1.0]
   >= -56647
 R953: 3 m[3,0,36] + 3 m[3,0,37] + 7 m[3,0,38] + 7 m[3,0,39] + 4 m[3,1,37]
   - m[3,1,38] - m[3,1,39] - 50000 c[3,9,-1.0] >= -49995
 R954: 4 m[3,0,36] - 6 m[3,0,37] + 15 m[3,0,38] + 2 m[3,0,39] - m[3,1,36]
   - 8 m[3,1,37] + 16 m[3,1,38] + 6 m[3,1,39] - 50000 c[3,9,-1.0]
   >= -49999
 R955: 3 m[3,0,36] - 4 m[3,0,37] - 16 m[3,0,38] - 9 m[3,1,36]
   + 20 m[3,1,37] + 4 m[3,1,38] + 8 m[3,1,39] - 50000 c[3,9,-1.0]
   >= -50009
 R956: c[3,10,0.0] + c[3,10,-3.0] + c[3,10,-2.0] + c[3,10,-1.41504]
   + c[3,10,-1.0] = 1
 R957: c[3,10,0.0] = 0
 R958: c[3,10,-3.0] = 0
 R959: m[3,0,41] + 3 m[3,0,42] + 2 m[3,1,41] - m[3,1,42] - 2 m[3,1,43]
   - 50000 c[3,10,-2.0] >= -50000
 R960: - m[3,0,41] - 3 m[3,0,42] + 2 m[3,1,41] - m[3,1,42] + 2 m[3,1,43]
   - 50000 c[3,10,-2.0] >= -50002
 R961: m[3,0,41] - 3 m[3,0,42] - 2 m[3,1,41] + m[3,1,42] - 2 m[3,1,43]
   - 50000 c[3,10,-2.0] >= -50004
 R962: - m[3,0,41] + 3 m[3,0,42] - 2 m[3,1,41] + m[3,1,42] + 2 m[3,1,43]
   - 50000 c[3,10,-2.0] >= -50000
 R963: c[3,10,-1.41504] = 0
 R964: c[3,10,-1.0] = 0
 R965: c[3,11,0.0] + c[3,11,-3.0] + c[3,11,-2.0] + c[3,11,-1.41504]
   + c[3,11,-1.0] = 1
 R966: - m[3,0,44] - m[3,0,45] - m[3,0,46] - m[3,0,47] - m[3,1,44]
   - m[3,1,45] - m[3,1,46] - m[3,1,47] - 50000 c[3,11,0.0] >= -50000
 R967: c[3,11,-3.0] = 0
 R968: - m[3,0,46] - m[3,0,47] - m[3,1,44] - m[3,1,45] - 50000 c[3,11,-2.0]
   >= -50003
 R969: m[3,0,46] + 2 m[3,1,44] + 3 m[3,1,45] - 50000 c[3,11,-2.0]
   >= -49997
 R970: 2 m[3,0,46] + 3 m[3,0,47] + 2 m[3,1,44] + m[3,1,45]
   - 50000 c[3,11,-2.0] >= -49996
 R971: c[3,11,-1.41504] = 0
 R972: - m[3,0,44] - 2 m[3,0,45] - 6649 m[3,0,46] + 6645 m[3,0,47]
   - 6645 m[3,1,44] - 4 m[3,1,45] - 2 m[3,1,46] - 3 m[3,1,47]
   - 50000 c[3,11,-1.0] >= -56656
 R973: - 4 m[3,0,44] - 7 m[3,0,45] + 2 m[3,0,46] - m[3,0,47] - m[3,1,44]
   + 2 m[3,1,45] - 6 m[3,1,46] - 6 m[3,1,47] - 50000 c[3,11,-1.0]
   >= -50018
 R974: 1898 m[3,0,44] + 2848 m[3,0,45] + 1901 m[3,0,46] - 6649 m[3,0,47]
   + 6647 m[3,1,44] - 5698 m[3,1,45] + 1899 m[3,1,46] + 2849 m[3,1,47]
   - 50000 c[3,11,-1.0] >= -50951
 R975: - m[3,0,44] + 11 m[3,0,45] + 5 m[3,0,46] + 9 m[3,1,44]
   + 11 m[3,1,45] + 5 m[3,1,46] - 2 m[3,1,47] - 50000 c[3,11,-1.0]
   >= -49992
 R976: - m[3,0,44] + 2 m[3,0,45] + 6649 m[3,0,46] - 6646 m[3,0,47]
   - 6647 m[3,1,45] - 2 m[3,1,46] + 3 m[3,1,47] - 50000 c[3,11,-1.0]
   >= -56647
 R977: 3 m[3,0,44] + 3 m[3,0,45] + 7 m[3,0,46] + 7 m[3,0,47] + 4 m[3,1,45]
   - m[3,1,46] - m[3,1,47] - 50000 c[3,11,-1.0] >= -49995
 R978: 4 m[3,0,44] - 6 m[3,0,45] + 15 m[3,0,46] + 2 m[3,0,47] - m[3,1,44]
   - 8 m[3,1,45] + 16 m[3,1,46] + 6 m[3,1,47] - 50000 c[3,11,-1.0]
   >= -49999
 R979: 3 m[3,0,44] - 4 m[3,0,45] - 16 m[3,0,46] - 9 m[3,1,44]
   + 20 m[3,1,45] + 4 m[3,1,46] + 8 m[3,1,47] - 50000 c[3,11,-1.0]
   >= -50009
 R980: c[3,12,0.0] + c[3,12,-3.0] + c[3,12,-2.0] + c[3,12,-1.41504]
   + c[3,12,-1.0] = 1
 R981: - m[3,0,48] - m[3,0,49] - m[3,0,50] - m[3,0,51] - m[3,1,48]
   - m[3,1,49] - m[3,1,50] - m[3,1,51] - 50000 c[3,12,0.0] >= -50000
 R982: c[3,12,-3.0] = 0
 R983: - m[3,0,50] - m[3,0,51] - m[3,1,48] - m[3,1,49] - 50000 c[3,12,-2.0]
   >= -50003
 R984: m[3,0,50] + 2 m[3,1,48] + 3 m[3,1,49] - 50000 c[3,12,-2.0]
   >= -49997
 R985: 2 m[3,0,50] + 3 m[3,0,51] + 2 m[3,1,48] + m[3,1,49]
   - 50000 c[3,12,-2.0] >= -49996
 R986: c[3,12,-1.41504] = 0
 R987: - m[3,0,48] - 2 m[3,0,49] - 6649 m[3,0,50] + 6645 m[3,0,51]
   - 6645 m[3,1,48] - 4 m[3,1,49] - 2 m[3,1,50] - 3 m[3,1,51]
   - 50000 c[3,12,-1.0] >= -56656
 R988: - 4 m[3,0,48] - 7 m[3,0,49] + 2 m[3,0,50] - m[3,0,51] - m[3,1,48]
   + 2 m[3,1,49] - 6 m[3,1,50] - 6 m[3,1,51] - 50000 c[3,12,-1.0]
   >= -50018
 R989: 1898 m[3,0,48] + 2848 m[3,0,49] + 1901 m[3,0,50] - 6649 m[3,0,51]
   + 6647 m[3,1,48] - 5698 m[3,1,49] + 1899 m[3,1,50] + 2849 m[3,1,51]
   - 50000 c[3,12,-1.0] >= -50951
 R990: - m[3,0,48] + 11 m[3,0,49] + 5 m[3,0,50] + 9 m[3,1,48]
   + 11 m[3,1,49] + 5 m[3,1,50] - 2 m[3,1,51] - 50000 c[3,12,-1.0]
   >= -49992
 R991: - m[3,0,48] + 2 m[3,0,49] + 6649 m[3,0,50] - 6646 m[3,0,51]
   - 6647 m[3,1,49] - 2 m[3,1,50] + 3 m[3,1,51] - 50000 c[3,12,-1.0]
   >= -56647
 R992: 3 m[3,0,48] + 3 m[3,0,49] + 7 m[3,0,50] + 7 m[3,0,51] + 4 m[3,1,49]
   - m[3,1,50] - m[3,1,51] - 50000 c[3,12,-1.0] >= -49995
 R993: 4 m[3,0,48] - 6 m[3,0,49] + 15 m[3,0,50] + 2 m[3,0,51] - m[3,1,48]
   - 8 m[3,1,49] + 16 m[3,1,50] + 6 m[3,1,51] - 50000 c[3,12,-1.0]
   >= -49999
 R994: 3 m[3,0,48] - 4 m[3,0,49] - 16 m[3,0,50] - 9 m[3,1,48]
   + 20 m[3,1,49] + 4 m[3,1,50] + 8 m[3,1,51] - 50000 c[3,12,-1.0]
   >= -50009
 R995: c[3,13,0.0] + c[3,13,-3.0] + c[3,13,-2.0] + c[3,13,-1.41504]
   + c[3,13,-1.0] = 1
 R996: - m[3,0,52] - m[3,0,53] - m[3,0,54] - m[3,0,55] - m[3,1,52]
   - m[3,1,53] - m[3,1,54] - m[3,1,55] - 50000 c[3,13,0.0] >= -50000
 R997: c[3,13,-3.0] = 0
 R998: - m[3,0,54] - m[3,0,55] - m[3,1,52] - m[3,1,53] - 50000 c[3,13,-2.0]
   >= -50003
 R999: m[3,0,54] + 2 m[3,1,52] + 3 m[3,1,53] - 50000 c[3,13,-2.0]
   >= -49997
 R1000: 2 m[3,0,54] + 3 m[3,0,55] + 2 m[3,1,52] + m[3,1,53]
   - 50000 c[3,13,-2.0] >= -49996
 R1001: c[3,13,-1.41504] = 0
 R1002: - m[3,0,52] - 2 m[3,0,53] - 6649 m[3,0,54] + 6645 m[3,0,55]
   - 6645 m[3,1,52] - 4 m[3,1,53] - 2 m[3,1,54] - 3 m[3,1,55]
   - 50000 c[3,13,-1.0] >= -56656
 R1003: - 4 m[3,0,52] - 7 m[3,0,53] + 2 m[3,0,54] - m[3,0,55] - m[3,1,52]
   + 2 m[3,1,53] - 6 m[3,1,54] - 6 m[3,1,55] - 50000 c[3,13,-1.0]
   >= -50018
 R1004: 1898 m[3,0,52] + 2848 m[3,0,53] + 1901 m[3,0,54] - 6649 m[3,0,55]
   + 6647 m[3,1,52] - 5698 m[3,1,53] + 1899 m[3,1,54] + 2849 m[3,1,55]
   - 50000 c[3,13,-1.0] >= -50951
 R1005: - m[3,0,52] + 11 m[3,0,53] + 5 m[3,0,54] + 9 m[3,1,52]
   + 11 m[3,1,53] + 5 m[3,1,54] - 2 m[3,1,55] - 50000 c[3,13,-1.0]
   >= -49992
 R1006: - m[3,0,52] + 2 m[3,0,53] + 6649 m[3,0,54] - 6646 m[3,0,55]
   - 6647 m[3,1,53] - 2 m[3,1,54] + 3 m[3,1,55] - 50000 c[3,13,-1.0]
   >= -56647
 R1007: 3 m[3,0,52] + 3 m[3,0,53] + 7 m[3,0,54] + 7 m[3,0,55] + 4 m[3,1,53]
   - m[3,1,54] - m[3,1,55] - 50000 c[3,13,-1.0] >= -49995
 R1008: 4 m[3,0,52] - 6 m[3,0,53] + 15 m[3,0,54] + 2 m[3,0,55] - m[3,1,52]
   - 8 m[3,1,53] + 16 m[3,1,54] + 6 m[3,1,55] - 50000 c[3,13,-1.0]
   >= -49999
 R1009: 3 m[3,0,52] - 4 m[3,0,53] - 16 m[3,0,54] - 9 m[3,1,52]
   + 20 m[3,1,53] + 4 m[3,1,54] + 8 m[3,1,55] - 50000 c[3,13,-1.0]
   >= -50009
 R1010: c[3,14,0.0] + c[3,14,-3.0] + c[3,14,-2.0] + c[3,14,-1.41504]
   + c[3,14,-1.0] = 1
 R1011: - m[3,0,56] - m[3,0,57] - m[3,0,58] - m[3,0,59] - m[3,1,56]
   - m[3,1,57] - m[3,1,58] - m[3,1,59] - 50000 c[3,14,0.0] >= -50000
 R1012: c[3,14,-3.0] = 0
 R1013: - m[3,0,58] - m[3,0,59] - m[3,1,56] - m[3,1,57]
   - 50000 c[3,14,-2.0] >= -50003
 R1014: m[3,0,58] + 2 m[3,1,56] + 3 m[3,1,57] - 50000 c[3,14,-2.0]
   >= -49997
 R1015: 2 m[3,0,58] + 3 m[3,0,59] + 2 m[3,1,56] + m[3,1,57]
   - 50000 c[3,14,-2.0] >= -49996
 R1016: c[3,14,-1.41504] = 0
 R1017: - m[3,0,56] - 2 m[3,0,57] - 6649 m[3,0,58] + 6645 m[3,0,59]
   - 6645 m[3,1,56] - 4 m[3,1,57] - 2 m[3,1,58] - 3 m[3,1,59]
   - 50000 c[3,14,-1.0] >= -56656
 R1018: - 4 m[3,0,56] - 7 m[3,0,57] + 2 m[3,0,58] - m[3,0,59] - m[3,1,56]
   + 2 m[3,1,57] - 6 m[3,1,58] - 6 m[3,1,59] - 50000 c[3,14,-1.0]
   >= -50018
 R1019: 1898 m[3,0,56] + 2848 m[3,0,57] + 1901 m[3,0,58] - 6649 m[3,0,59]
   + 6647 m[3,1,56] - 5698 m[3,1,57] + 1899 m[3,1,58] + 2849 m[3,1,59]
   - 50000 c[3,14,-1.0] >= -50951
 R1020: - m[3,0,56] + 11 m[3,0,57] + 5 m[3,0,58] + 9 m[3,1,56]
   + 11 m[3,1,57] + 5 m[3,1,58] - 2 m[3,1,59] - 50000 c[3,14,-1.0]
   >= -49992
 R1021: - m[3,0,56] + 2 m[3,0,57] + 6649 m[3,0,58] - 6646 m[3,0,59]
   - 6647 m[3,1,57] - 2 m[3,1,58] + 3 m[3,1,59] - 50000 c[3,14,-1.0]
   >= -56647
 R1022: 3 m[3,0,56] + 3 m[3,0,57] + 7 m[3,0,58] + 7 m[3,0,59] + 4 m[3,1,57]
   - m[3,1,58] - m[3,1,59] - 50000 c[3,14,-1.0] >= -49995
 R1023: 4 m[3,0,56] - 6 m[3,0,57] + 15 m[3,0,58] + 2 m[3,0,59] - m[3,1,56]
   - 8 m[3,1,57] + 16 m[3,1,58] + 6 m[3,1,59] - 50000 c[3,14,-1.0]
   >= -49999
 R1024: 3 m[3,0,56] - 4 m[3,0,57] - 16 m[3,0,58] - 9 m[3,1,56]
   + 20 m[3,1,57] + 4 m[3,1,58] + 8 m[3,1,59] - 50000 c[3,14,-1.0]
   >= -50009
 R1025: c[3,15,0.0] + c[3,15,-3.0] + c[3,15,-2.0] + c[3,15,-1.41504]
   + c[3,15,-1.0] = 1
 R1026: - m[3,0,60] - m[3,0,61] - m[3,0,62] - m[3,0,63] - m[3,1,60]
   - m[3,1,61] - m[3,1,62] - m[3,1,63] - 50000 c[3,15,0.0] >= -50000
 R1027: c[3,15,-3.0] = 0
 R1028: - m[3,0,62] - m[3,0,63] - m[3,1,60] - m[3,1,61]
   - 50000 c[3,15,-2.0] >= -50003
 R1029: m[3,0,62] + 2 m[3,1,60] + 3 m[3,1,61] - 50000 c[3,15,-2.0]
   >= -49997
 R1030: 2 m[3,0,62] + 3 m[3,0,63] + 2 m[3,1,60] + m[3,1,61]
   - 50000 c[3,15,-2.0] >= -49996
 R1031: c[3,15,-1.41504] = 0
 R1032: - m[3,0,60] - 2 m[3,0,61] - 6649 m[3,0,62] + 6645 m[3,0,63]
   - 6645 m[3,1,60] - 4 m[3,1,61] - 2 m[3,1,62] - 3 m[3,1,63]
   - 50000 c[3,15,-1.0] >= -56656
 R1033: - 4 m[3,0,60] - 7 m[3,0,61] + 2 m[3,0,62] - m[3,0,63] - m[3,1,60]
   + 2 m[3,1,61] - 6 m[3,1,62] - 6 m[3,1,63] - 50000 c[3,15,-1.0]
   >= -50018
 R1034: 1898 m[3,0,60] + 2848 m[3,0,61] + 1901 m[3,0,62] - 6649 m[3,0,63]
   + 6647 m[3,1,60] - 5698 m[3,1,61] + 1899 m[3,1,62] + 2849 m[3,1,63]
   - 50000 c[3,15,-1.0] >= -50951
 R1035: - m[3,0,60] + 11 m[3,0,61] + 5 m[3,0,62] + 9 m[3,1,60]
   + 11 m[3,1,61] + 5 m[3,1,62] - 2 m[3,1,63] - 50000 c[3,15,-1.0]
   >= -49992
 R1036: - m[3,0,60] + 2 m[3,0,61] + 6649 m[3,0,62] - 6646 m[3,0,63]
   - 6647 m[3,1,61] - 2 m[3,1,62] + 3 m[3,1,63] - 50000 c[3,15,-1.0]
   >= -56647
 R1037: 3 m[3,0,60] + 3 m[3,0,61] + 7 m[3,0,62] + 7 m[3,0,63] + 4 m[3,1,61]
   - m[3,1,62] - m[3,1,63] - 50000 c[3,15,-1.0] >= -49995
 R1038: 4 m[3,0,60] - 6 m[3,0,61] + 15 m[3,0,62] + 2 m[3,0,63] - m[3,1,60]
   - 8 m[3,1,61] + 16 m[3,1,62] + 6 m[3,1,63] - 50000 c[3,15,-1.0]
   >= -49999
 R1039: 3 m[3,0,60] - 4 m[3,0,61] - 16 m[3,0,62] - 9 m[3,1,60]
   + 20 m[3,1,61] + 4 m[3,1,62] + 8 m[3,1,63] - 50000 c[3,15,-1.0]
   >= -50009
 R1040: c[4,0,0.0] + c[4,0,-3.0] + c[4,0,-2.0] + c[4,0,-1.41504]
   + c[4,0,-1.0] = 1
 R1041: - m[4,0,0] - m[4,0,1] - m[4,0,2] - m[4,0,3] - m[4,1,0] - m[4,1,1]
   - m[4,1,2] - m[4,1,3] - 50000 c[4,0,0.0] >= -50000
 R1042: c[4,0,-3.0] = 0
 R1043: - m[4,0,2] - m[4,0,3] - m[4,1,0] - m[4,1,1] - 50000 c[4,0,-2.0]
   >= -50003
 R1044: m[4,0,2] + 2 m[4,1,0] + 3 m[4,1,1] - 50000 c[4,0,-2.0] >= -49997
 R1045: 2 m[4,0,2] + 3 m[4,0,3] + 2 m[4,1,0] + m[4,1,1] - 50000 c[4,0,-2.0]
   >= -49996
 R1046: c[4,0,-1.41504] = 0
 R1047: - m[4,0,0] - 2 m[4,0,1] - 6649 m[4,0,2] + 6645 m[4,0,3]
   - 6645 m[4,1,0] - 4 m[4,1,1] - 2 m[4,1,2] - 3 m[4,1,3]
   - 50000 c[4,0,-1.0] >= -56656
 R1048: - 4 m[4,0,0] - 7 m[4,0,1] + 2 m[4,0,2] - m[4,0,3] - m[4,1,0]
   + 2 m[4,1,1] - 6 m[4,1,2] - 6 m[4,1,3] - 50000 c[4,0,-1.0] >= -50018
 R1049: 1898 m[4,0,0] + 2848 m[4,0,1] + 1901 m[4,0,2] - 6649 m[4,0,3]
   + 6647 m[4,1,0] - 5698 m[4,1,1] + 1899 m[4,1,2] + 2849 m[4,1,3]
   - 50000 c[4,0,-1.0] >= -50951
 R1050: - m[4,0,0] + 11 m[4,0,1] + 5 m[4,0,2] + 9 m[4,1,0] + 11 m[4,1,1]
   + 5 m[4,1,2] - 2 m[4,1,3] - 50000 c[4,0,-1.0] >= -49992
 R1051: - m[4,0,0] + 2 m[4,0,1] + 6649 m[4,0,2] - 6646 m[4,0,3]
   - 6647 m[4,1,1] - 2 m[4,1,2] + 3 m[4,1,3] - 50000 c[4,0,-1.0] >= -56647
 R1052: 3 m[4,0,0] + 3 m[4,0,1] + 7 m[4,0,2] + 7 m[4,0,3] + 4 m[4,1,1]
   - m[4,1,2] - m[4,1,3] - 50000 c[4,0,-1.0] >= -49995
 R1053: 4 m[4,0,0] - 6 m[4,0,1] + 15 m[4,0,2] + 2 m[4,0,3] - m[4,1,0]
   - 8 m[4,1,1] + 16 m[4,1,2] + 6 m[4,1,3] - 50000 c[4,0,-1.0] >= -49999
 R1054: 3 m[4,0,0] - 4 m[4,0,1] - 16 m[4,0,2] - 9 m[4,1,0] + 20 m[4,1,1]
   + 4 m[4,1,2] + 8 m[4,1,3] - 50000 c[4,0,-1.0] >= -50009
 R1055: c[4,1,0.0] + c[4,1,-3.0] + c[4,1,-2.0] + c[4,1,-1.41504]
   + c[4,1,-1.0] = 1
 R1056: - m[4,0,4] - m[4,0,5] - m[4,0,6] - m[4,0,7] - m[4,1,4] - m[4,1,5]
   - m[4,1,6] - m[4,1,7] - 50000 c[4,1,0.0] >= -50000
 R1057: c[4,1,-3.0] = 0
 R1058: - m[4,0,6] - m[4,0,7] - m[4,1,4] - m[4,1,5] - 50000 c[4,1,-2.0]
   >= -50003
 R1059: m[4,0,6] + 2 m[4,1,4] + 3 m[4,1,5] - 50000 c[4,1,-2.0] >= -49997
 R1060: 2 m[4,0,6] + 3 m[4,0,7] + 2 m[4,1,4] + m[4,1,5] - 50000 c[4,1,-2.0]
   >= -49996
 R1061: c[4,1,-1.41504] = 0
 R1062: - m[4,0,4] - 2 m[4,0,5] - 6649 m[4,0,6] + 6645 m[4,0,7]
   - 6645 m[4,1,4] - 4 m[4,1,5] - 2 m[4,1,6] - 3 m[4,1,7]
   - 50000 c[4,1,-1.0] >= -56656
 R1063: - 4 m[4,0,4] - 7 m[4,0,5] + 2 m[4,0,6] - m[4,0,7] - m[4,1,4]
   + 2 m[4,1,5] - 6 m[4,1,6] - 6 m[4,1,7] - 50000 c[4,1,-1.0] >= -50018
 R1064: 1898 m[4,0,4] + 2848 m[4,0,5] + 1901 m[4,0,6] - 6649 m[4,0,7]
   + 6647 m[4,1,4] - 5698 m[4,1,5] + 1899 m[4,1,6] + 2849 m[4,1,7]
   - 50000 c[4,1,-1.0] >= -50951
 R1065: - m[4,0,4] + 11 m[4,0,5] + 5 m[4,0,6] + 9 m[4,1,4] + 11 m[4,1,5]
   + 5 m[4,1,6] - 2 m[4,1,7] - 50000 c[4,1,-1.0] >= -49992
 R1066: - m[4,0,4] + 2 m[4,0,5] + 6649 m[4,0,6] - 6646 m[4,0,7]
   - 6647 m[4,1,5] - 2 m[4,1,6] + 3 m[4,1,7] - 50000 c[4,1,-1.0] >= -56647
 R1067: 3 m[4,0,4] + 3 m[4,0,5] + 7 m[4,0,6] + 7 m[4,0,7] + 4 m[4,1,5]
   - m[4,1,6] - m[4,1,7] - 50000 c[4,1,-1.0] >= -49995
 R1068: 4 m[4,0,4] - 6 m[4,0,5] + 15 m[4,0,6] + 2 m[4,0,7] - m[4,1,4]
   - 8 m[4,1,5] + 16 m[4,1,6] + 6 m[4,1,7] - 50000 c[4,1,-1.0] >= -49999
 R1069: 3 m[4,0,4] - 4 m[4,0,5] - 16 m[4,0,6] - 9 m[4,1,4] + 20 m[4,1,5]
   + 4 m[4,1,6] + 8 m[4,1,7] - 50000 c[4,1,-1.0] >= -50009
 R1070: c[4,2,0.0] + c[4,2,-3.0] + c[4,2,-2.0] + c[4,2,-1.41504]
   + c[4,2,-1.0] = 1
 R1071: c[4,2,0.0] = 0
 R1072: - m[4,0,9] - m[4,0,11] - m[4,1,10] - 50000 c[4,2,-3.0] >= -50002
 R1073: m[4,0,9] + m[4,0,11] - m[4,1,10] - 50000 c[4,2,-3.0] >= -50000
 R1074: - m[4,0,9] + m[4,0,11] + m[4,1,10] - 50000 c[4,2,-3.0] >= -50000
 R1075: m[4,0,9] - m[4,0,11] + m[4,1,10] - 50000 c[4,2,-3.0] >= -50000
 R1076: c[4,2,-2.0] = 0
 R1077: c[4,2,-1.41504] = 0
 R1078: c[4,2,-1.0] = 0
 R1079: c[4,3,0.0] + c[4,3,-3.0] + c[4,3,-2.0] + c[4,3,-1.41504]
   + c[4,3,-1.0] = 1
 R1080: - m[4,0,12] - m[4,0,13] - m[4,0,14] - m[4,0,15] - m[4,1,12]
   - m[4,1,13] - m[4,1,14] - m[4,1,15] - 50000 c[4,3,0.0] >= -50000
 R1081: c[4,3,-3.0] = 0
 R1082: - m[4,0,14] - m[4,0,15] - m[4,1,12] - m[4,1,13] - 50000 c[4,3,-2.0]
   >= -50003
 R1083: m[4,0,14] + 2 m[4,1,12] + 3 m[4,1,13] - 50000 c[4,3,-2.0]
   >= -49997
 R1084: 2 m[4,0,14] + 3 m[4,0,15] + 2 m[4,1,12] + m[4,1,13]
   - 50000 c[4,3,-2.0] >= -49996
 R1085: c[4,3,-1.41504] = 0
 R1086: - m[4,0,12] - 2 m[4,0,13] - 6649 m[4,0,14] + 6645 m[4,0,15]
   - 6645 m[4,1,12] - 4 m[4,1,13] - 2 m[4,1,14] - 3 m[4,1,15]
   - 50000 c[4,3,-1.0] >= -56656
 R1087: - 4 m[4,0,12] - 7 m[4,0,13] + 2 m[4,0,14] - m[4,0,15] - m[4,1,12]
   + 2 m[4,1,13] - 6 m[4,1,14] - 6 m[4,1,15] - 50000 c[4,3,-1.0] >= -50018
 R1088: 1898 m[4,0,12] + 2848 m[4,0,13] + 1901 m[4,0,14] - 6649 m[4,0,15]
   + 6647 m[4,1,12] - 5698 m[4,1,13] + 1899 m[4,1,14] + 2849 m[4,1,15]
   - 50000 c[4,3,-1.0] >= -50951
 R1089: - m[4,0,12] + 11 m[4,0,13] + 5 m[4,0,14] + 9 m[4,1,12]
   + 11 m[4,1,13] + 5 m[4,1,14] - 2 m[4,1,15] - 50000 c[4,3,-1.0]
   >= -49992
 R1090: - m[4,0,12] + 2 m[4,0,13] + 6649 m[4,0,14] - 6646 m[4,0,15]
   - 6647 m[4,1,13] - 2 m[4,1,14] + 3 m[4,1,15] - 50000 c[4,3,-1.0]
   >= -56647
 R1091: 3 m[4,0,12] + 3 m[4,0,13] + 7 m[4,0,14] + 7 m[4,0,15] + 4 m[4,1,13]
   - m[4,1,14] - m[4,1,15] - 50000 c[4,3,-1.0] >= -49995
 R1092: 4 m[4,0,12] - 6 m[4,0,13] + 15 m[4,0,14] + 2 m[4,0,15] - m[4,1,12]
   - 8 m[4,1,13] + 16 m[4,1,14] + 6 m[4,1,15] - 50000 c[4,3,-1.0]
   >= -49999
 R1093: 3 m[4,0,12] - 4 m[4,0,13] - 16 m[4,0,14] - 9 m[4,1,12]
   + 20 m[4,1,13] + 4 m[4,1,14] + 8 m[4,1,15] - 50000 c[4,3,-1.0]
   >= -50009
 R1094: c[4,4,0.0] + c[4,4,-3.0] + c[4,4,-2.0] + c[4,4,-1.41504]
   + c[4,4,-1.0] = 1
 R1095: - m[4,0,16] - m[4,0,17] - m[4,0,18] - m[4,0,19] - m[4,1,16]
   - m[4,1,17] - m[4,1,18] - m[4,1,19] - 50000 c[4,4,0.0] >= -50000
 R1096: c[4,4,-3.0] = 0
 R1097: - m[4,0,18] - m[4,0,19] - m[4,1,16] - m[4,1,17] - 50000 c[4,4,-2.0]
   >= -50003
 R1098: m[4,0,18] + 2 m[4,1,16] + 3 m[4,1,17] - 50000 c[4,4,-2.0]
   >= -49997
 R1099: 2 m[4,0,18] + 3 m[4,0,19] + 2 m[4,1,16] + m[4,1,17]
   - 50000 c[4,4,-2.0] >= -49996
 R1100: c[4,4,-1.41504] = 0
 R1101: - m[4,0,16] - 2 m[4,0,17] - 6649 m[4,0,18] + 6645 m[4,0,19]
   - 6645 m[4,1,16] - 4 m[4,1,17] - 2 m[4,1,18] - 3 m[4,1,19]
   - 50000 c[4,4,-1.0] >= -56656
 R1102: - 4 m[4,0,16] - 7 m[4,0,17] + 2 m[4,0,18] - m[4,0,19] - m[4,1,16]
   + 2 m[4,1,17] - 6 m[4,1,18] - 6 m[4,1,19] - 50000 c[4,4,-1.0] >= -50018
 R1103: 1898 m[4,0,16] + 2848 m[4,0,17] + 1901 m[4,0,18] - 6649 m[4,0,19]
   + 6647 m[4,1,16] - 5698 m[4,1,17] + 1899 m[4,1,18] + 2849 m[4,1,19]
   - 50000 c[4,4,-1.0] >= -50951
 R1104: - m[4,0,16] + 11 m[4,0,17] + 5 m[4,0,18] + 9 m[4,1,16]
   + 11 m[4,1,17] + 5 m[4,1,18] - 2 m[4,1,19] - 50000 c[4,4,-1.0]
   >= -49992
 R1105: - m[4,0,16] + 2 m[4,0,17] + 6649 m[4,0,18] - 6646 m[4,0,19]
   - 6647 m[4,1,17] - 2 m[4,1,18] + 3 m[4,1,19] - 50000 c[4,4,-1.0]
   >= -56647
 R1106: 3 m[4,0,16] + 3 m[4,0,17] + 7 m[4,0,18] + 7 m[4,0,19] + 4 m[4,1,17]
   - m[4,1,18] - m[4,1,19] - 50000 c[4,4,-1.0] >= -49995
 R1107: 4 m[4,0,16] - 6 m[4,0,17] + 15 m[4,0,18] + 2 m[4,0,19] - m[4,1,16]
   - 8 m[4,1,17] + 16 m[4,1,18] + 6 m[4,1,19] - 50000 c[4,4,-1.0]
   >= -49999
 R1108: 3 m[4,0,16] - 4 m[4,0,17] - 16 m[4,0,18] - 9 m[4,1,16]
   + 20 m[4,1,17] + 4 m[4,1,18] + 8 m[4,1,19] - 50000 c[4,4,-1.0]
   >= -50009
 R1109: c[4,5,0.0] + c[4,5,-3.0] + c[4,5,-2.0] + c[4,5,-1.41504]
   + c[4,5,-1.0] = 1
 R1110: - m[4,0,20] - m[4,0,21] - m[4,0,22] - m[4,0,23] - m[4,1,20]
   - m[4,1,21] - m[4,1,22] - m[4,1,23] - 50000 c[4,5,0.0] >= -50000
 R1111: c[4,5,-3.0] = 0
 R1112: - m[4,0,22] - m[4,0,23] - m[4,1,20] - m[4,1,21] - 50000 c[4,5,-2.0]
   >= -50003
 R1113: m[4,0,22] + 2 m[4,1,20] + 3 m[4,1,21] - 50000 c[4,5,-2.0]
   >= -49997
 R1114: 2 m[4,0,22] + 3 m[4,0,23] + 2 m[4,1,20] + m[4,1,21]
   - 50000 c[4,5,-2.0] >= -49996
 R1115: c[4,5,-1.41504] = 0
 R1116: - m[4,0,20] - 2 m[4,0,21] - 6649 m[4,0,22] + 6645 m[4,0,23]
   - 6645 m[4,1,20] - 4 m[4,1,21] - 2 m[4,1,22] - 3 m[4,1,23]
   - 50000 c[4,5,-1.0] >= -56656
 R1117: - 4 m[4,0,20] - 7 m[4,0,21] + 2 m[4,0,22] - m[4,0,23] - m[4,1,20]
   + 2 m[4,1,21] - 6 m[4,1,22] - 6 m[4,1,23] - 50000 c[4,5,-1.0] >= -50018
 R1118: 1898 m[4,0,20] + 2848 m[4,0,21] + 1901 m[4,0,22] - 6649 m[4,0,23]
   + 6647 m[4,1,20] - 5698 m[4,1,21] + 1899 m[4,1,22] + 2849 m[4,1,23]
   - 50000 c[4,5,-1.0] >= -50951
 R1119: - m[4,0,20] + 11 m[4,0,21] + 5 m[4,0,22] + 9 m[4,1,20]
   + 11 m[4,1,21] + 5 m[4,1,22] - 2 m[4,1,23] - 50000 c[4,5,-1.0]
   >= -49992
 R1120: - m[4,0,20] + 2 m[4,0,21] + 6649 m[4,0,22] - 6646 m[4,0,23]
   - 6647 m[4,1,21] - 2 m[4,1,22] + 3 m[4,1,23] - 50000 c[4,5,-1.0]
   >= -56647
 R1121: 3 m[4,0,20] + 3 m[4,0,21] + 7 m[4,0,22] + 7 m[4,0,23] + 4 m[4,1,21]
   - m[4,1,22] - m[4,1,23] - 50000 c[4,5,-1.0] >= -49995
 R1122: 4 m[4,0,20] - 6 m[4,0,21] + 15 m[4,0,22] + 2 m[4,0,23] - m[4,1,20]
   - 8 m[4,1,21] + 16 m[4,1,22] + 6 m[4,1,23] - 50000 c[4,5,-1.0]
   >= -49999
 R1123: 3 m[4,0,20] - 4 m[4,0,21] - 16 m[4,0,22] - 9 m[4,1,20]
   + 20 m[4,1,21] + 4 m[4,1,22] + 8 m[4,1,23] - 50000 c[4,5,-1.0]
   >= -50009
 R1124: c[4,6,0.0] + c[4,6,-3.0] + c[4,6,-2.0] + c[4,6,-1.41504]
   + c[4,6,-1.0] = 1
 R1125: - m[4,0,24] - m[4,0,25] - m[4,0,26] - m[4,0,27] - m[4,1,24]
   - m[4,1,25] - m[4,1,26] - m[4,1,27] - 50000 c[4,6,0.0] >= -50000
 R1126: c[4,6,-3.0] = 0
 R1127: - m[4,0,26] - m[4,0,27] - m[4,1,24] - m[4,1,25] - 50000 c[4,6,-2.0]
   >= -50003
 R1128: m[4,0,26] + 2 m[4,1,24] + 3 m[4,1,25] - 50000 c[4,6,-2.0]
   >= -49997
 R1129: 2 m[4,0,26] + 3 m[4,0,27] + 2 m[4,1,24] + m[4,1,25]
   - 50000 c[4,6,-2.0] >= -49996
 R1130: c[4,6,-1.41504] = 0
 R1131: - m[4,0,24] - 2 m[4,0,25] - 6649 m[4,0,26] + 6645 m[4,0,27]
   - 6645 m[4,1,24] - 4 m[4,1,25] - 2 m[4,1,26] - 3 m[4,1,27]
   - 50000 c[4,6,-1.0] >= -56656
 R1132: - 4 m[4,0,24] - 7 m[4,0,25] + 2 m[4,0,26] - m[4,0,27] - m[4,1,24]
   + 2 m[4,1,25] - 6 m[4,1,26] - 6 m[4,1,27] - 50000 c[4,6,-1.0] >= -50018
 R1133: 1898 m[4,0,24] + 2848 m[4,0,25] + 1901 m[4,0,26] - 6649 m[4,0,27]
   + 6647 m[4,1,24] - 5698 m[4,1,25] + 1899 m[4,1,26] + 2849 m[4,1,27]
   - 50000 c[4,6,-1.0] >= -50951
 R1134: - m[4,0,24] + 11 m[4,0,25] + 5 m[4,0,26] + 9 m[4,1,24]
   + 11 m[4,1,25] + 5 m[4,1,26] - 2 m[4,1,27] - 50000 c[4,6,-1.0]
   >= -49992
 R1135: - m[4,0,24] + 2 m[4,0,25] + 6649 m[4,0,26] - 6646 m[4,0,27]
   - 6647 m[4,1,25] - 2 m[4,1,26] + 3 m[4,1,27] - 50000 c[4,6,-1.0]
   >= -56647
 R1136: 3 m[4,0,24] + 3 m[4,0,25] + 7 m[4,0,26] + 7 m[4,0,27] + 4 m[4,1,25]
   - m[4,1,26] - m[4,1,27] - 50000 c[4,6,-1.0] >= -49995
 R1137: 4 m[4,0,24] - 6 m[4,0,25] + 15 m[4,0,26] + 2 m[4,0,27] - m[4,1,24]
   - 8 m[4,1,25] + 16 m[4,1,26] + 6 m[4,1,27] - 50000 c[4,6,-1.0]
   >= -49999
 R1138: 3 m[4,0,24] - 4 m[4,0,25] - 16 m[4,0,26] - 9 m[4,1,24]
   + 20 m[4,1,25] + 4 m[4,1,26] + 8 m[4,1,27] - 50000 c[4,6,-1.0]
   >= -50009
 R1139: c[4,7,0.0] + c[4,7,-3.0] + c[4,7,-2.0] + c[4,7,-1.41504]
   + c[4,7,-1.0] = 1
 R1140: - m[4,0,28] - m[4,0,29] - m[4,0,30] - m[4,0,31] - m[4,1,28]
   - m[4,1,29] - m[4,1,30] - m[4,1,31] - 50000 c[4,7,0.0] >= -50000
 R1141: c[4,7,-3.0] = 0
 R1142: - m[4,0,30] - m[4,0,31] - m[4,1,28] - m[4,1,29] - 50000 c[4,7,-2.0]
   >= -50003
 R1143: m[4,0,30] + 2 m[4,1,28] + 3 m[4,1,29] - 50000 c[4,7,-2.0]
   >= -49997
 R1144: 2 m[4,0,30] + 3 m[4,0,31] + 2 m[4,1,28] + m[4,1,29]
   - 50000 c[4,7,-2.0] >= -49996
 R1145: c[4,7,-1.41504] = 0
 R1146: - m[4,0,28] - 2 m[4,0,29] - 6649 m[4,0,30] + 6645 m[4,0,31]
   - 6645 m[4,1,28] - 4 m[4,1,29] - 2 m[4,1,30] - 3 m[4,1,31]
   - 50000 c[4,7,-1.0] >= -56656
 R1147: - 4 m[4,0,28] - 7 m[4,0,29] + 2 m[4,0,30] - m[4,0,31] - m[4,1,28]
   + 2 m[4,1,29] - 6 m[4,1,30] - 6 m[4,1,31] - 50000 c[4,7,-1.0] >= -50018
 R1148: 1898 m[4,0,28] + 2848 m[4,0,29] + 1901 m[4,0,30] - 6649 m[4,0,31]
   + 6647 m[4,1,28] - 5698 m[4,1,29] + 1899 m[4,1,30] + 2849 m[4,1,31]
   - 50000 c[4,7,-1.0] >= -50951
 R1149: - m[4,0,28] + 11 m[4,0,29] + 5 m[4,0,30] + 9 m[4,1,28]
   + 11 m[4,1,29] + 5 m[4,1,30] - 2 m[4,1,31] - 50000 c[4,7,-1.0]
   >= -49992
 R1150: - m[4,0,28] + 2 m[4,0,29] + 6649 m[4,0,30] - 6646 m[4,0,31]
   - 6647 m[4,1,29] - 2 m[4,1,30] + 3 m[4,1,31] - 50000 c[4,7,-1.0]
   >= -56647
 R1151: 3 m[4,0,28] + 3 m[4,0,29] + 7 m[4,0,30] + 7 m[4,0,31] + 4 m[4,1,29]
   - m[4,1,30] - m[4,1,31] - 50000 c[4,7,-1.0] >= -49995
 R1152: 4 m[4,0,28] - 6 m[4,0,29] + 15 m[4,0,30] + 2 m[4,0,31] - m[4,1,28]
   - 8 m[4,1,29] + 16 m[4,1,30] + 6 m[4,1,31] - 50000 c[4,7,-1.0]
   >= -49999
 R1153: 3 m[4,0,28] - 4 m[4,0,29] - 16 m[4,0,30] - 9 m[4,1,28]
   + 20 m[4,1,29] + 4 m[4,1,30] + 8 m[4,1,31] - 50000 c[4,7,-1.0]
   >= -50009
 R1154: c[4,8,0.0] + c[4,8,-3.0] + c[4,8,-2.0] + c[4,8,-1.41504]
   + c[4,8,-1.0] = 1
 R1155: - m[4,0,32] - m[4,0,33] - m[4,0,34] - m[4,0,35] - m[4,1,32]
   - m[4,1,33] - m[4,1,34] - m[4,1,35] - 50000 c[4,8,0.0] >= -50000
 R1156: c[4,8,-3.0] = 0
 R1157: - m[4,0,34] - m[4,0,35] - m[4,1,32] - m[4,1,33] - 50000 c[4,8,-2.0]
   >= -50003
 R1158: m[4,0,34] + 2 m[4,1,32] + 3 m[4,1,33] - 50000 c[4,8,-2.0]
   >= -49997
 R1159: 2 m[4,0,34] + 3 m[4,0,35] + 2 m[4,1,32] + m[4,1,33]
   - 50000 c[4,8,-2.0] >= -49996
 R1160: c[4,8,-1.41504] = 0
 R1161: - m[4,0,32] - 2 m[4,0,33] - 6649 m[4,0,34] + 6645 m[4,0,35]
   - 6645 m[4,1,32] - 4 m[4,1,33] - 2 m[4,1,34] - 3 m[4,1,35]
   - 50000 c[4,8,-1.0] >= -56656
 R1162: - 4 m[4,0,32] - 7 m[4,0,33] + 2 m[4,0,34] - m[4,0,35] - m[4,1,32]
   + 2 m[4,1,33] - 6 m[4,1,34] - 6 m[4,1,35] - 50000 c[4,8,-1.0] >= -50018
 R1163: 1898 m[4,0,32] + 2848 m[4,0,33] + 1901 m[4,0,34] - 6649 m[4,0,35]
   + 6647 m[4,1,32] - 5698 m[4,1,33] + 1899 m[4,1,34] + 2849 m[4,1,35]
   - 50000 c[4,8,-1.0] >= -50951
 R1164: - m[4,0,32] + 11 m[4,0,33] + 5 m[4,0,34] + 9 m[4,1,32]
   + 11 m[4,1,33] + 5 m[4,1,34] - 2 m[4,1,35] - 50000 c[4,8,-1.0]
   >= -49992
 R1165: - m[4,0,32] + 2 m[4,0,33] + 6649 m[4,0,34] - 6646 m[4,0,35]
   - 6647 m[4,1,33] - 2 m[4,1,34] + 3 m[4,1,35] - 50000 c[4,8,-1.0]
   >= -56647
 R1166: 3 m[4,0,32] + 3 m[4,0,33] + 7 m[4,0,34] + 7 m[4,0,35] + 4 m[4,1,33]
   - m[4,1,34] - m[4,1,35] - 50000 c[4,8,-1.0] >= -49995
 R1167: 4 m[4,0,32] - 6 m[4,0,33] + 15 m[4,0,34] + 2 m[4,0,35] - m[4,1,32]
   - 8 m[4,1,33] + 16 m[4,1,34] + 6 m[4,1,35] - 50000 c[4,8,-1.0]
   >= -49999
 R1168: 3 m[4,0,32] - 4 m[4,0,33] - 16 m[4,0,34] - 9 m[4,1,32]
   + 20 m[4,1,33] + 4 m[4,1,34] + 8 m[4,1,35] - 50000 c[4,8,-1.0]
   >= -50009
 R1169: c[4,9,0.0] + c[4,9,-3.0] + c[4,9,-2.0] + c[4,9,-1.41504]
   + c[4,9,-1.0] = 1
 R1170: - m[4,0,36] - m[4,0,37] - m[4,0,38] - m[4,0,39] - m[4,1,36]
   - m[4,1,37] - m[4,1,38] - m[4,1,39] - 50000 c[4,9,0.0] >= -50000
 R1171: c[4,9,-3.0] = 0
 R1172: - m[4,0,38] - m[4,0,39] - m[4,1,36] - m[4,1,37] - 50000 c[4,9,-2.0]
   >= -50003
 R1173: m[4,0,38] + 2 m[4,1,36] + 3 m[4,1,37] - 50000 c[4,9,-2.0]
   >= -49997
 R1174: 2 m[4,0,38] + 3 m[4,0,39] + 2 m[4,1,36] + m[4,1,37]
   - 50000 c[4,9,-2.0] >= -49996
 R1175: c[4,9,-1.41504] = 0
 R1176: - m[4,0,36] - 2 m[4,0,37] - 6649 m[4,0,38] + 6645 m[4,0,39]
   - 6645 m[4,1,36] - 4 m[4,1,37] - 2 m[4,1,38] - 3 m[4,1,39]
   - 50000 c[4,9,-1.0] >= -56656
 R1177: - 4 m[4,0,36] - 7 m[4,0,37] + 2 m[4,0,38] - m[4,0,39] - m[4,1,36]
   + 2 m[4,1,37] - 6 m[4,1,38] - 6 m[4,1,39] - 50000 c[4,9,-1.0] >= -50018
 R1178: 1898 m[4,0,36] + 2848 m[4,0,37] + 1901 m[4,0,38] - 6649 m[4,0,39]
   + 6647 m[4,1,36] - 5698 m[4,1,37] + 1899 m[4,1,38] + 2849 m[4,1,39]
   - 50000 c[4,9,-1.0] >= -50951
 R1179: - m[4,0,36] + 11 m[4,0,37] + 5 m[4,0,38] + 9 m[4,1,36]
   + 11 m[4,1,37] + 5 m[4,1,38] - 2 m[4,1,39] - 50000 c[4,9,-1.0]
   >= -49992
 R1180: - m[4,0,36] + 2 m[4,0,37] + 6649 m[4,0,38] - 6646 m[4,0,39]
   - 6647 m[4,1,37] - 2 m[4,1,38] + 3 m[4,1,39] - 50000 c[4,9,-1.0]
   >= -56647
 R1181: 3 m[4,0,36] + 3 m[4,0,37] + 7 m[4,0,38] + 7 m[4,0,39] + 4 m[4,1,37]
   - m[4,1,38] - m[4,1,39] - 50000 c[4,9,-1.0] >= -49995
 R1182: 4 m[4,0,36] - 6 m[4,0,37] + 15 m[4,0,38] + 2 m[4,0,39] - m[4,1,36]
   - 8 m[4,1,37] + 16 m[4,1,38] + 6 m[4,1,39] - 50000 c[4,9,-1.0]
   >= -49999
 R1183: 3 m[4,0,36] - 4 m[4,0,37] - 16 m[4,0,38] - 9 m[4,1,36]
   + 20 m[4,1,37] + 4 m[4,1,38] + 8 m[4,1,39] - 50000 c[4,9,-1.0]
   >= -50009
 R1184: c[4,10,0.0] + c[4,10,-3.0] + c[4,10,-2.0] + c[4,10,-1.41504]
   + c[4,10,-1.0] = 1
 R1185: c[4,10,0.0] = 0
 R1186: - m[4,0,41] - m[4,0,43] - m[4,1,42] - 50000 c[4,10,-3.0] >= -50002
 R1187: m[4,0,41] + m[4,0,43] - m[4,1,42] - 50000 c[4,10,-3.0] >= -50000
 R1188: - m[4,0,41] + m[4,0,43] + m[4,1,42] - 50000 c[4,10,-3.0] >= -50000
 R1189: m[4,0,41] - m[4,0,43] + m[4,1,42] - 50000 c[4,10,-3.0] >= -50000
 R1190: c[4,10,-2.0] = 0
 R1191: c[4,10,-1.41504] = 0
 R1192: c[4,10,-1.0] = 0
 R1193: c[4,11,0.0] + c[4,11,-3.0] + c[4,11,-2.0] + c[4,11,-1.41504]
   + c[4,11,-1.0] = 1
 R1194: - m[4,0,44] - m[4,0,45] - m[4,0,46] - m[4,0,47] - m[4,1,44]
   - m[4,1,45] - m[4,1,46] - m[4,1,47] - 50000 c[4,11,0.0] >= -50000
 R1195: c[4,11,-3.0] = 0
 R1196: - m[4,0,46] - m[4,0,47] - m[4,1,44] - m[4,1,45]
   - 50000 c[4,11,-2.0] >= -50003
 R1197: m[4,0,46] + 2 m[4,1,44] + 3 m[4,1,45] - 50000 c[4,11,-2.0]
   >= -49997
 R1198: 2 m[4,0,46] + 3 m[4,0,47] + 2 m[4,1,44] + m[4,1,45]
   - 50000 c[4,11,-2.0] >= -49996
 R1199: c[4,11,-1.41504] = 0
 R1200: - m[4,0,44] - 2 m[4,0,45] - 6649 m[4,0,46] + 6645 m[4,0,47]
   - 6645 m[4,1,44] - 4 m[4,1,45] - 2 m[4,1,46] - 3 m[4,1,47]
   - 50000 c[4,11,-1.0] >= -56656
 R1201: - 4 m[4,0,44] - 7 m[4,0,45] + 2 m[4,0,46] - m[4,0,47] - m[4,1,44]
   + 2 m[4,1,45] - 6 m[4,1,46] - 6 m[4,1,47] - 50000 c[4,11,-1.0]
   >= -50018
 R1202: 1898 m[4,0,44] + 2848 m[4,0,45] + 1901 m[4,0,46] - 6649 m[4,0,47]
   + 6647 m[4,1,44] - 5698 m[4,1,45] + 1899 m[4,1,46] + 2849 m[4,1,47]
   - 50000 c[4,11,-1.0] >= -50951
 R1203: - m[4,0,44] + 11 m[4,0,45] + 5 m[4,0,46] + 9 m[4,1,44]
   + 11 m[4,1,45] + 5 m[4,1,46] - 2 m[4,1,47] - 50000 c[4,11,-1.0]
   >= -49992
 R1204: - m[4,0,44] + 2 m[4,0,45] + 6649 m[4,0,46] - 6646 m[4,0,47]
   - 6647 m[4,1,45] - 2 m[4,1,46] + 3 m[4,1,47] - 50000 c[4,11,-1.0]
   >= -56647
 R1205: 3 m[4,0,44] + 3 m[4,0,45] + 7 m[4,0,46] + 7 m[4,0,47] + 4 m[4,1,45]
   - m[4,1,46] - m[4,1,47] - 50000 c[4,11,-1.0] >= -49995
 R1206: 4 m[4,0,44] - 6 m[4,0,45] + 15 m[4,0,46] + 2 m[4,0,47] - m[4,1,44]
   - 8 m[4,1,45] + 16 m[4,1,46] + 6 m[4,1,47] - 50000 c[4,11,-1.0]
   >= -49999
 R1207: 3 m[4,0,44] - 4 m[4,0,45] - 16 m[4,0,46] - 9 m[4,1,44]
   + 20 m[4,1,45] + 4 m[4,1,46] + 8 m[4,1,47] - 50000 c[4,11,-1.0]
   >= -50009
 R1208: c[4,12,0.0] + c[4,12,-3.0] + c[4,12,-2.0] + c[4,12,-1.41504]
   + c[4,12,-1.0] = 1
 R1209: - m[4,0,48] - m[4,0,49] - m[4,0,50] - m[4,0,51] - m[4,1,48]
   - m[4,1,49] - m[4,1,50] - m[4,1,51] - 50000 c[4,12,0.0] >= -50000
 R1210: c[4,12,-3.0] = 0
 R1211: - m[4,0,50] - m[4,0,51] - m[4,1,48] - m[4,1,49]
   - 50000 c[4,12,-2.0] >= -50003
 R1212: m[4,0,50] + 2 m[4,1,48] + 3 m[4,1,49] - 50000 c[4,12,-2.0]
   >= -49997
 R1213: 2 m[4,0,50] + 3 m[4,0,51] + 2 m[4,1,48] + m[4,1,49]
   - 50000 c[4,12,-2.0] >= -49996
 R1214: c[4,12,-1.41504] = 0
 R1215: - m[4,0,48] - 2 m[4,0,49] - 6649 m[4,0,50] + 6645 m[4,0,51]
   - 6645 m[4,1,48] - 4 m[4,1,49] - 2 m[4,1,50] - 3 m[4,1,51]
   - 50000 c[4,12,-1.0] >= -56656
 R1216: - 4 m[4,0,48] - 7 m[4,0,49] + 2 m[4,0,50] - m[4,0,51] - m[4,1,48]
   + 2 m[4,1,49] - 6 m[4,1,50] - 6 m[4,1,51] - 50000 c[4,12,-1.0]
   >= -50018
 R1217: 1898 m[4,0,48] + 2848 m[4,0,49] + 1901 m[4,0,50] - 6649 m[4,0,51]
   + 6647 m[4,1,48] - 5698 m[4,1,49] + 1899 m[4,1,50] + 2849 m[4,1,51]
   - 50000 c[4,12,-1.0] >= -50951
 R1218: - m[4,0,48] + 11 m[4,0,49] + 5 m[4,0,50] + 9 m[4,1,48]
   + 11 m[4,1,49] + 5 m[4,1,50] - 2 m[4,1,51] - 50000 c[4,12,-1.0]
   >= -49992
 R1219: - m[4,0,48] + 2 m[4,0,49] + 6649 m[4,0,50] - 6646 m[4,0,51]
   - 6647 m[4,1,49] - 2 m[4,1,50] + 3 m[4,1,51] - 50000 c[4,12,-1.0]
   >= -56647
 R1220: 3 m[4,0,48] + 3 m[4,0,49] + 7 m[4,0,50] + 7 m[4,0,51] + 4 m[4,1,49]
   - m[4,1,50] - m[4,1,51] - 50000 c[4,12,-1.0] >= -49995
 R1221: 4 m[4,0,48] - 6 m[4,0,49] + 15 m[4,0,50] + 2 m[4,0,51] - m[4,1,48]
   - 8 m[4,1,49] + 16 m[4,1,50] + 6 m[4,1,51] - 50000 c[4,12,-1.0]
   >= -49999
 R1222: 3 m[4,0,48] - 4 m[4,0,49] - 16 m[4,0,50] - 9 m[4,1,48]
   + 20 m[4,1,49] + 4 m[4,1,50] + 8 m[4,1,51] - 50000 c[4,12,-1.0]
   >= -50009
 R1223: c[4,13,0.0] + c[4,13,-3.0] + c[4,13,-2.0] + c[4,13,-1.41504]
   + c[4,13,-1.0] = 1
 R1224: - m[4,0,52] - m[4,0,53] - m[4,0,54] - m[4,0,55] - m[4,1,52]
   - m[4,1,53] - m[4,1,54] - m[4,1,55] - 50000 c[4,13,0.0] >= -50000
 R1225: c[4,13,-3.0] = 0
 R1226: - m[4,0,54] - m[4,0,55] - m[4,1,52] - m[4,1,53]
   - 50000 c[4,13,-2.0] >= -50003
 R1227: m[4,0,54] + 2 m[4,1,52] + 3 m[4,1,53] - 50000 c[4,13,-2.0]
   >= -49997
 R1228: 2 m[4,0,54] + 3 m[4,0,55] + 2 m[4,1,52] + m[4,1,53]
   - 50000 c[4,13,-2.0] >= -49996
 R1229: c[4,13,-1.41504] = 0
 R1230: - m[4,0,52] - 2 m[4,0,53] - 6649 m[4,0,54] + 6645 m[4,0,55]
   - 6645 m[4,1,52] - 4 m[4,1,53] - 2 m[4,1,54] - 3 m[4,1,55]
   - 50000 c[4,13,-1.0] >= -56656
 R1231: - 4 m[4,0,52] - 7 m[4,0,53] + 2 m[4,0,54] - m[4,0,55] - m[4,1,52]
   + 2 m[4,1,53] - 6 m[4,1,54] - 6 m[4,1,55] - 50000 c[4,13,-1.0]
   >= -50018
 R1232: 1898 m[4,0,52] + 2848 m[4,0,53] + 1901 m[4,0,54] - 6649 m[4,0,55]
   + 6647 m[4,1,52] - 5698 m[4,1,53] + 1899 m[4,1,54] + 2849 m[4,1,55]
   - 50000 c[4,13,-1.0] >= -50951
 R1233: - m[4,0,52] + 11 m[4,0,53] + 5 m[4,0,54] + 9 m[4,1,52]
   + 11 m[4,1,53] + 5 m[4,1,54] - 2 m[4,1,55] - 50000 c[4,13,-1.0]
   >= -49992
 R1234: - m[4,0,52] + 2 m[4,0,53] + 6649 m[4,0,54] - 6646 m[4,0,55]
   - 6647 m[4,1,53] - 2 m[4,1,54] + 3 m[4,1,55] - 50000 c[4,13,-1.0]
   >= -56647
 R1235: 3 m[4,0,52] + 3 m[4,0,53] + 7 m[4,0,54] + 7 m[4,0,55] + 4 m[4,1,53]
   - m[4,1,54] - m[4,1,55] - 50000 c[4,13,-1.0] >= -49995
 R1236: 4 m[4,0,52] - 6 m[4,0,53] + 15 m[4,0,54] + 2 m[4,0,55] - m[4,1,52]
   - 8 m[4,1,53] + 16 m[4,1,54] + 6 m[4,1,55] - 50000 c[4,13,-1.0]
   >= -49999
 R1237: 3 m[4,0,52] - 4 m[4,0,53] - 16 m[4,0,54] - 9 m[4,1,52]
   + 20 m[4,1,53] + 4 m[4,1,54] + 8 m[4,1,55] - 50000 c[4,13,-1.0]
   >= -50009
 R1238: c[4,14,0.0] + c[4,14,-3.0] + c[4,14,-2.0] + c[4,14,-1.41504]
   + c[4,14,-1.0] = 1
 R1239: - m[4,0,56] - m[4,0,57] - m[4,0,58] - m[4,0,59] - m[4,1,56]
   - m[4,1,57] - m[4,1,58] - m[4,1,59] - 50000 c[4,14,0.0] >= -50000
 R1240: c[4,14,-3.0] = 0
 R1241: - m[4,0,58] - m[4,0,59] - m[4,1,56] - m[4,1,57]
   - 50000 c[4,14,-2.0] >= -50003
 R1242: m[4,0,58] + 2 m[4,1,56] + 3 m[4,1,57] - 50000 c[4,14,-2.0]
   >= -49997
 R1243: 2 m[4,0,58] + 3 m[4,0,59] + 2 m[4,1,56] + m[4,1,57]
   - 50000 c[4,14,-2.0] >= -49996
 R1244: c[4,14,-1.41504] = 0
 R1245: - m[4,0,56] - 2 m[4,0,57] - 6649 m[4,0,58] + 6645 m[4,0,59]
   - 6645 m[4,1,56] - 4 m[4,1,57] - 2 m[4,1,58] - 3 m[4,1,59]
   - 50000 c[4,14,-1.0] >= -56656
 R1246: - 4 m[4,0,56] - 7 m[4,0,57] + 2 m[4,0,58] - m[4,0,59] - m[4,1,56]
   + 2 m[4,1,57] - 6 m[4,1,58] - 6 m[4,1,59] - 50000 c[4,14,-1.0]
   >= -50018
 R1247: 1898 m[4,0,56] + 2848 m[4,0,57] + 1901 m[4,0,58] - 6649 m[4,0,59]
   + 6647 m[4,1,56] - 5698 m[4,1,57] + 1899 m[4,1,58] + 2849 m[4,1,59]
   - 50000 c[4,14,-1.0] >= -50951
 R1248: - m[4,0,56] + 11 m[4,0,57] + 5 m[4,0,58] + 9 m[4,1,56]
   + 11 m[4,1,57] + 5 m[4,1,58] - 2 m[4,1,59] - 50000 c[4,14,-1.0]
   >= -49992
 R1249: - m[4,0,56] + 2 m[4,0,57] + 6649 m[4,0,58] - 6646 m[4,0,59]
   - 6647 m[4,1,57] - 2 m[4,1,58] + 3 m[4,1,59] - 50000 c[4,14,-1.0]
   >= -56647
 R1250: 3 m[4,0,56] + 3 m[4,0,57] + 7 m[4,0,58] + 7 m[4,0,59] + 4 m[4,1,57]
   - m[4,1,58] - m[4,1,59] - 50000 c[4,14,-1.0] >= -49995
 R1251: 4 m[4,0,56] - 6 m[4,0,57] + 15 m[4,0,58] + 2 m[4,0,59] - m[4,1,56]
   - 8 m[4,1,57] + 16 m[4,1,58] + 6 m[4,1,59] - 50000 c[4,14,-1.0]
   >= -49999
 R1252: 3 m[4,0,56] - 4 m[4,0,57] - 16 m[4,0,58] - 9 m[4,1,56]
   + 20 m[4,1,57] + 4 m[4,1,58] + 8 m[4,1,59] - 50000 c[4,14,-1.0]
   >= -50009
 R1253: c[4,15,0.0] + c[4,15,-3.0] + c[4,15,-2.0] + c[4,15,-1.41504]
   + c[4,15,-1.0] = 1
 R1254: - m[4,0,60] - m[4,0,61] - m[4,0,62] - m[4,0,63] - m[4,1,60]
   - m[4,1,61] - m[4,1,62] - m[4,1,63] - 50000 c[4,15,0.0] >= -50000
 R1255: c[4,15,-3.0] = 0
 R1256: - m[4,0,62] - m[4,0,63] - m[4,1,60] - m[4,1,61]
   - 50000 c[4,15,-2.0] >= -50003
 R1257: m[4,0,62] + 2 m[4,1,60] + 3 m[4,1,61] - 50000 c[4,15,-2.0]
   >= -49997
 R1258: 2 m[4,0,62] + 3 m[4,0,63] + 2 m[4,1,60] + m[4,1,61]
   - 50000 c[4,15,-2.0] >= -49996
 R1259: c[4,15,-1.41504] = 0
 R1260: - m[4,0,60] - 2 m[4,0,61] - 6649 m[4,0,62] + 6645 m[4,0,63]
   - 6645 m[4,1,60] - 4 m[4,1,61] - 2 m[4,1,62] - 3 m[4,1,63]
   - 50000 c[4,15,-1.0] >= -56656
 R1261: - 4 m[4,0,60] - 7 m[4,0,61] + 2 m[4,0,62] - m[4,0,63] - m[4,1,60]
   + 2 m[4,1,61] - 6 m[4,1,62] - 6 m[4,1,63] - 50000 c[4,15,-1.0]
   >= -50018
 R1262: 1898 m[4,0,60] + 2848 m[4,0,61] + 1901 m[4,0,62] - 6649 m[4,0,63]
   + 6647 m[4,1,60] - 5698 m[4,1,61] + 1899 m[4,1,62] + 2849 m[4,1,63]
   - 50000 c[4,15,-1.0] >= -50951
 R1263: - m[4,0,60] + 11 m[4,0,61] + 5 m[4,0,62] + 9 m[4,1,60]
   + 11 m[4,1,61] + 5 m[4,1,62] - 2 m[4,1,63] - 50000 c[4,15,-1.0]
   >= -49992
 R1264: - m[4,0,60] + 2 m[4,0,61] + 6649 m[4,0,62] - 6646 m[4,0,63]
   - 6647 m[4,1,61] - 2 m[4,1,62] + 3 m[4,1,63] - 50000 c[4,15,-1.0]
   >= -56647
 R1265: 3 m[4,0,60] + 3 m[4,0,61] + 7 m[4,0,62] + 7 m[4,0,63] + 4 m[4,1,61]
   - m[4,1,62] - m[4,1,63] - 50000 c[4,15,-1.0] >= -49995
 R1266: 4 m[4,0,60] - 6 m[4,0,61] + 15 m[4,0,62] + 2 m[4,0,63] - m[4,1,60]
   - 8 m[4,1,61] + 16 m[4,1,62] + 6 m[4,1,63] - 50000 c[4,15,-1.0]
   >= -49999
 R1267: 3 m[4,0,60] - 4 m[4,0,61] - 16 m[4,0,62] - 9 m[4,1,60]
   + 20 m[4,1,61] + 4 m[4,1,62] + 8 m[4,1,63] - 50000 c[4,15,-1.0]
   >= -50009
 R1268: c[5,0,0.0] + c[5,0,-3.0] + c[5,0,-2.0] + c[5,0,-1.41504]
   + c[5,0,-1.0] = 1
 R1269: - m[5,0,0] - m[5,0,1] - m[5,0,2] - m[5,0,3] - m[5,1,0] - m[5,1,1]
   - m[5,1,2] - m[5,1,3] - 50000 c[5,0,0.0] >= -50000
 R1270: c[5,0,-3.0] = 0
 R1271: - m[5,0,2] - m[5,0,3] - m[5,1,0] - m[5,1,1] - 50000 c[5,0,-2.0]
   >= -50003
 R1272: m[5,0,2] + 2 m[5,1,0] + 3 m[5,1,1] - 50000 c[5,0,-2.0] >= -49997
 R1273: 2 m[5,0,2] + 3 m[5,0,3] + 2 m[5,1,0] + m[5,1,1] - 50000 c[5,0,-2.0]
   >= -49996
 R1274: c[5,0,-1.41504] = 0
 R1275: - m[5,0,0] - 2 m[5,0,1] - 6649 m[5,0,2] + 6645 m[5,0,3]
   - 6645 m[5,1,0] - 4 m[5,1,1] - 2 m[5,1,2] - 3 m[5,1,3]
   - 50000 c[5,0,-1.0] >= -56656
 R1276: - 4 m[5,0,0] - 7 m[5,0,1] + 2 m[5,0,2] - m[5,0,3] - m[5,1,0]
   + 2 m[5,1,1] - 6 m[5,1,2] - 6 m[5,1,3] - 50000 c[5,0,-1.0] >= -50018
 R1277: 1898 m[5,0,0] + 2848 m[5,0,1] + 1901 m[5,0,2] - 6649 m[5,0,3]
   + 6647 m[5,1,0] - 5698 m[5,1,1] + 1899 m[5,1,2] + 2849 m[5,1,3]
   - 50000 c[5,0,-1.0] >= -50951
 R1278: - m[5,0,0] + 11 m[5,0,1] + 5 m[5,0,2] + 9 m[5,1,0] + 11 m[5,1,1]
   + 5 m[5,1,2] - 2 m[5,1,3] - 50000 c[5,0,-1.0] >= -49992
 R1279: - m[5,0,0] + 2 m[5,0,1] + 6649 m[5,0,2] - 6646 m[5,0,3]
   - 6647 m[5,1,1] - 2 m[5,1,2] + 3 m[5,1,3] - 50000 c[5,0,-1.0] >= -56647
 R1280: 3 m[5,0,0] + 3 m[5,0,1] + 7 m[5,0,2] + 7 m[5,0,3] + 4 m[5,1,1]
   - m[5,1,2] - m[5,1,3] - 50000 c[5,0,-1.0] >= -49995
 R1281: 4 m[5,0,0] - 6 m[5,0,1] + 15 m[5,0,2] + 2 m[5,0,3] - m[5,1,0]
   - 8 m[5,1,1] + 16 m[5,1,2] + 6 m[5,1,3] - 50000 c[5,0,-1.0] >= -49999
 R1282: 3 m[5,0,0] - 4 m[5,0,1] - 16 m[5,0,2] - 9 m[5,1,0] + 20 m[5,1,1]
   + 4 m[5,1,2] + 8 m[5,1,3] - 50000 c[5,0,-1.0] >= -50009
 R1283: c[5,1,0.0] + c[5,1,-3.0] + c[5,1,-2.0] + c[5,1,-1.41504]
   + c[5,1,-1.0] = 1
 R1284: - m[5,0,4] - m[5,0,5] - m[5,0,6] - m[5,0,7] - m[5,1,4] - m[5,1,5]
   - m[5,1,6] - m[5,1,7] - 50000 c[5,1,0.0] >= -50000
 R1285: c[5,1,-3.0] = 0
 R1286: - m[5,0,6] - m[5,0,7] - m[5,1,4] - m[5,1,5] - 50000 c[5,1,-2.0]
   >= -50003
 R1287: m[5,0,6] + 2 m[5,1,4] + 3 m[5,1,5] - 50000 c[5,1,-2.0] >= -49997
 R1288: 2 m[5,0,6] + 3 m[5,0,7] + 2 m[5,1,4] + m[5,1,5] - 50000 c[5,1,-2.0]
   >= -49996
 R1289: c[5,1,-1.41504] = 0
 R1290: - m[5,0,4] - 2 m[5,0,5] - 6649 m[5,0,6] + 6645 m[5,0,7]
   - 6645 m[5,1,4] - 4 m[5,1,5] - 2 m[5,1,6] - 3 m[5,1,7]
   - 50000 c[5,1,-1.0] >= -56656
 R1291: - 4 m[5,0,4] - 7 m[5,0,5] + 2 m[5,0,6] - m[5,0,7] - m[5,1,4]
   + 2 m[5,1,5] - 6 m[5,1,6] - 6 m[5,1,7] - 50000 c[5,1,-1.0] >= -50018
 R1292: 1898 m[5,0,4] + 2848 m[5,0,5] + 1901 m[5,0,6] - 6649 m[5,0,7]
   + 6647 m[5,1,4] - 5698 m[5,1,5] + 1899 m[5,1,6] + 2849 m[5,1,7]
   - 50000 c[5,1,-1.0] >= -50951
 R1293: - m[5,0,4] + 11 m[5,0,5] + 5 m[5,0,6] + 9 m[5,1,4] + 11 m[5,1,5]
   + 5 m[5,1,6] - 2 m[5,1,7] - 50000 c[5,1,-1.0] >= -49992
 R1294: - m[5,0,4] + 2 m[5,0,5] + 6649 m[5,0,6] - 6646 m[5,0,7]
   - 6647 m[5,1,5] - 2 m[5,1,6] + 3 m[5,1,7] - 50000 c[5,1,-1.0] >= -56647
 R1295: 3 m[5,0,4] + 3 m[5,0,5] + 7 m[5,0,6] + 7 m[5,0,7] + 4 m[5,1,5]
   - m[5,1,6] - m[5,1,7] - 50000 c[5,1,-1.0] >= -49995
 R1296: 4 m[5,0,4] - 6 m[5,0,5] + 15 m[5,0,6] + 2 m[5,0,7] - m[5,1,4]
   - 8 m[5,1,5] + 16 m[5,1,6] + 6 m[5,1,7] - 50000 c[5,1,-1.0] >= -49999
 R1297: 3 m[5,0,4] - 4 m[5,0,5] - 16 m[5,0,6] - 9 m[5,1,4] + 20 m[5,1,5]
   + 4 m[5,1,6] + 8 m[5,1,7] - 50000 c[5,1,-1.0] >= -50009
 R1298: c[5,2,0.0] + c[5,2,-3.0] + c[5,2,-2.0] + c[5,2,-1.41504]
   + c[5,2,-1.0] = 1
 R1299: - m[5,0,8] - m[5,0,9] - m[5,0,10] - m[5,0,11] - m[5,1,8] - m[5,1,9]
   - m[5,1,10] - m[5,1,11] - 50000 c[5,2,0.0] >= -50000
 R1300: c[5,2,-3.0] = 0
 R1301: - m[5,0,10] - m[5,0,11] - m[5,1,8] - m[5,1,9] - 50000 c[5,2,-2.0]
   >= -50003
 R1302: m[5,0,10] + 2 m[5,1,8] + 3 m[5,1,9] - 50000 c[5,2,-2.0] >= -49997
 R1303: 2 m[5,0,10] + 3 m[5,0,11] + 2 m[5,1,8] + m[5,1,9]
   - 50000 c[5,2,-2.0] >= -49996
 R1304: c[5,2,-1.41504] = 0
 R1305: - m[5,0,8] - 2 m[5,0,9] - 6649 m[5,0,10] + 6645 m[5,0,11]
   - 6645 m[5,1,8] - 4 m[5,1,9] - 2 m[5,1,10] - 3 m[5,1,11]
   - 50000 c[5,2,-1.0] >= -56656
 R1306: - 4 m[5,0,8] - 7 m[5,0,9] + 2 m[5,0,10] - m[5,0,11] - m[5,1,8]
   + 2 m[5,1,9] - 6 m[5,1,10] - 6 m[5,1,11] - 50000 c[5,2,-1.0] >= -50018
 R1307: 1898 m[5,0,8] + 2848 m[5,0,9] + 1901 m[5,0,10] - 6649 m[5,0,11]
   + 6647 m[5,1,8] - 5698 m[5,1,9] + 1899 m[5,1,10] + 2849 m[5,1,11]
   - 50000 c[5,2,-1.0] >= -50951
 R1308: - m[5,0,8] + 11 m[5,0,9] + 5 m[5,0,10] + 9 m[5,1,8] + 11 m[5,1,9]
   + 5 m[5,1,10] - 2 m[5,1,11] - 50000 c[5,2,-1.0] >= -49992
 R1309: - m[5,0,8] + 2 m[5,0,9] + 6649 m[5,0,10] - 6646 m[5,0,11]
   - 6647 m[5,1,9] - 2 m[5,1,10] + 3 m[5,1,11] - 50000 c[5,2,-1.0]
   >= -56647
 R1310: 3 m[5,0,8] + 3 m[5,0,9] + 7 m[5,0,10] + 7 m[5,0,11] + 4 m[5,1,9]
   - m[5,1,10] - m[5,1,11] - 50000 c[5,2,-1.0] >= -49995
 R1311: 4 m[5,0,8] - 6 m[5,0,9] + 15 m[5,0,10] + 2 m[5,0,11] - m[5,1,8]
   - 8 m[5,1,9] + 16 m[5,1,10] + 6 m[5,1,11] - 50000 c[5,2,-1.0] >= -49999
 R1312: 3 m[5,0,8] - 4 m[5,0,9] - 16 m[5,0,10] - 9 m[5,1,8] + 20 m[5,1,9]
   + 4 m[5,1,10] + 8 m[5,1,11] - 50000 c[5,2,-1.0] >= -50009
 R1313: c[5,3,0.0] + c[5,3,-3.0] + c[5,3,-2.0] + c[5,3,-1.41504]
   + c[5,3,-1.0] = 1
 R1314: - m[5,0,12] - m[5,0,13] - m[5,0,14] - m[5,0,15] - m[5,1,12]
   - m[5,1,13] - m[5,1,14] - m[5,1,15] - 50000 c[5,3,0.0] >= -50000
 R1315: c[5,3,-3.0] = 0
 R1316: - m[5,0,14] - m[5,0,15] - m[5,1,12] - m[5,1,13] - 50000 c[5,3,-2.0]
   >= -50003
 R1317: m[5,0,14] + 2 m[5,1,12] + 3 m[5,1,13] - 50000 c[5,3,-2.0]
   >= -49997
 R1318: 2 m[5,0,14] + 3 m[5,0,15] + 2 m[5,1,12] + m[5,1,13]
   - 50000 c[5,3,-2.0] >= -49996
 R1319: c[5,3,-1.41504] = 0
 R1320: - m[5,0,12] - 2 m[5,0,13] - 6649 m[5,0,14] + 6645 m[5,0,15]
   - 6645 m[5,1,12] - 4 m[5,1,13] - 2 m[5,1,14] - 3 m[5,1,15]
   - 50000 c[5,3,-1.0] >= -56656
 R1321: - 4 m[5,0,12] - 7 m[5,0,13] + 2 m[5,0,14] - m[5,0,15] - m[5,1,12]
   + 2 m[5,1,13] - 6 m[5,1,14] - 6 m[5,1,15] - 50000 c[5,3,-1.0] >= -50018
 R1322: 1898 m[5,0,12] + 2848 m[5,0,13] + 1901 m[5,0,14] - 6649 m[5,0,15]
   + 6647 m[5,1,12] - 5698 m[5,1,13] + 1899 m[5,1,14] + 2849 m[5,1,15]
   - 50000 c[5,3,-1.0] >= -50951
 R1323: - m[5,0,12] + 11 m[5,0,13] + 5 m[5,0,14] + 9 m[5,1,12]
   + 11 m[5,1,13] + 5 m[5,1,14] - 2 m[5,1,15] - 50000 c[5,3,-1.0]
   >= -49992
 R1324: - m[5,0,12] + 2 m[5,0,13] + 6649 m[5,0,14] - 6646 m[5,0,15]
   - 6647 m[5,1,13] - 2 m[5,1,14] + 3 m[5,1,15] - 50000 c[5,3,-1.0]
   >= -56647
 R1325: 3 m[5,0,12] + 3 m[5,0,13] + 7 m[5,0,14] + 7 m[5,0,15] + 4 m[5,1,13]
   - m[5,1,14] - m[5,1,15] - 50000 c[5,3,-1.0] >= -49995
 R1326: 4 m[5,0,12] - 6 m[5,0,13] + 15 m[5,0,14] + 2 m[5,0,15] - m[5,1,12]
   - 8 m[5,1,13] + 16 m[5,1,14] + 6 m[5,1,15] - 50000 c[5,3,-1.0]
   >= -49999
 R1327: 3 m[5,0,12] - 4 m[5,0,13] - 16 m[5,0,14] - 9 m[5,1,12]
   + 20 m[5,1,13] + 4 m[5,1,14] + 8 m[5,1,15] - 50000 c[5,3,-1.0]
   >= -50009
 R1328: c[5,4,0.0] + c[5,4,-3.0] + c[5,4,-2.0] + c[5,4,-1.41504]
   + c[5,4,-1.0] = 1
 R1329: - m[5,0,16] - m[5,0,17] - m[5,0,18] - m[5,0,19] - m[5,1,16]
   - m[5,1,17] - m[5,1,18] - m[5,1,19] - 50000 c[5,4,0.0] >= -50000
 R1330: c[5,4,-3.0] = 0
 R1331: - m[5,0,18] - m[5,0,19] - m[5,1,16] - m[5,1,17] - 50000 c[5,4,-2.0]
   >= -50003
 R1332: m[5,0,18] + 2 m[5,1,16] + 3 m[5,1,17] - 50000 c[5,4,-2.0]
   >= -49997
 R1333: 2 m[5,0,18] + 3 m[5,0,19] + 2 m[5,1,16] + m[5,1,17]
   - 50000 c[5,4,-2.0] >= -49996
 R1334: c[5,4,-1.41504] = 0
 R1335: - m[5,0,16] - 2 m[5,0,17] - 6649 m[5,0,18] + 6645 m[5,0,19]
   - 6645 m[5,1,16] - 4 m[5,1,17] - 2 m[5,1,18] - 3 m[5,1,19]
   - 50000 c[5,4,-1.0] >= -56656
 R1336: - 4 m[5,0,16] - 7 m[5,0,17] + 2 m[5,0,18] - m[5,0,19] - m[5,1,16]
   + 2 m[5,1,17] - 6 m[5,1,18] - 6 m[5,1,19] - 50000 c[5,4,-1.0] >= -50018
 R1337: 1898 m[5,0,16] + 2848 m[5,0,17] + 1901 m[5,0,18] - 6649 m[5,0,19]
   + 6647 m[5,1,16] - 5698 m[5,1,17] + 1899 m[5,1,18] + 2849 m[5,1,19]
   - 50000 c[5,4,-1.0] >= -50951
 R1338: - m[5,0,16] + 11 m[5,0,17] + 5 m[5,0,18] + 9 m[5,1,16]
   + 11 m[5,1,17] + 5 m[5,1,18] - 2 m[5,1,19] - 50000 c[5,4,-1.0]
   >= -49992
 R1339: - m[5,0,16] + 2 m[5,0,17] + 6649 m[5,0,18] - 6646 m[5,0,19]
   - 6647 m[5,1,17] - 2 m[5,1,18] + 3 m[5,1,19] - 50000 c[5,4,-1.0]
   >= -56647
 R1340: 3 m[5,0,16] + 3 m[5,0,17] + 7 m[5,0,18] + 7 m[5,0,19] + 4 m[5,1,17]
   - m[5,1,18] - m[5,1,19] - 50000 c[5,4,-1.0] >= -49995
 R1341: 4 m[5,0,16] - 6 m[5,0,17] + 15 m[5,0,18] + 2 m[5,0,19] - m[5,1,16]
   - 8 m[5,1,17] + 16 m[5,1,18] + 6 m[5,1,19] - 50000 c[5,4,-1.0]
   >= -49999
 R1342: 3 m[5,0,16] - 4 m[5,0,17] - 16 m[5,0,18] - 9 m[5,1,16]
   + 20 m[5,1,17] + 4 m[5,1,18] + 8 m[5,1,19] - 50000 c[5,4,-1.0]
   >= -50009
 R1343: c[5,5,0.0] + c[5,5,-3.0] + c[5,5,-2.0] + c[5,5,-1.41504]
   + c[5,5,-1.0] = 1
 R1344: - m[5,0,20] - m[5,0,21] - m[5,0,22] - m[5,0,23] - m[5,1,20]
   - m[5,1,21] - m[5,1,22] - m[5,1,23] - 50000 c[5,5,0.0] >= -50000
 R1345: c[5,5,-3.0] = 0
 R1346: - m[5,0,22] - m[5,0,23] - m[5,1,20] - m[5,1,21] - 50000 c[5,5,-2.0]
   >= -50003
 R1347: m[5,0,22] + 2 m[5,1,20] + 3 m[5,1,21] - 50000 c[5,5,-2.0]
   >= -49997
 R1348: 2 m[5,0,22] + 3 m[5,0,23] + 2 m[5,1,20] + m[5,1,21]
   - 50000 c[5,5,-2.0] >= -49996
 R1349: c[5,5,-1.41504] = 0
 R1350: - m[5,0,20] - 2 m[5,0,21] - 6649 m[5,0,22] + 6645 m[5,0,23]
   - 6645 m[5,1,20] - 4 m[5,1,21] - 2 m[5,1,22] - 3 m[5,1,23]
   - 50000 c[5,5,-1.0] >= -56656
 R1351: - 4 m[5,0,20] - 7 m[5,0,21] + 2 m[5,0,22] - m[5,0,23] - m[5,1,20]
   + 2 m[5,1,21] - 6 m[5,1,22] - 6 m[5,1,23] - 50000 c[5,5,-1.0] >= -50018
 R1352: 1898 m[5,0,20] + 2848 m[5,0,21] + 1901 m[5,0,22] - 6649 m[5,0,23]
   + 6647 m[5,1,20] - 5698 m[5,1,21] + 1899 m[5,1,22] + 2849 m[5,1,23]
   - 50000 c[5,5,-1.0] >= -50951
 R1353: - m[5,0,20] + 11 m[5,0,21] + 5 m[5,0,22] + 9 m[5,1,20]
   + 11 m[5,1,21] + 5 m[5,1,22] - 2 m[5,1,23] - 50000 c[5,5,-1.0]
   >= -49992
 R1354: - m[5,0,20] + 2 m[5,0,21] + 6649 m[5,0,22] - 6646 m[5,0,23]
   - 6647 m[5,1,21] - 2 m[5,1,22] + 3 m[5,1,23] - 50000 c[5,5,-1.0]
   >= -56647
 R1355: 3 m[5,0,20] + 3 m[5,0,21] + 7 m[5,0,22] + 7 m[5,0,23] + 4 m[5,1,21]
   - m[5,1,22] - m[5,1,23] - 50000 c[5,5,-1.0] >= -49995
 R1356: 4 m[5,0,20] - 6 m[5,0,21] + 15 m[5,0,22] + 2 m[5,0,23] - m[5,1,20]
   - 8 m[5,1,21] + 16 m[5,1,22] + 6 m[5,1,23] - 50000 c[5,5,-1.0]
   >= -49999
 R1357: 3 m[5,0,20] - 4 m[5,0,21] - 16 m[5,0,22] - 9 m[5,1,20]
   + 20 m[5,1,21] + 4 m[5,1,22] + 8 m[5,1,23] - 50000 c[5,5,-1.0]
   >= -50009
 R1358: c[5,6,0.0] + c[5,6,-3.0] + c[5,6,-2.0] + c[5,6,-1.41504]
   + c[5,6,-1.0] = 1
 R1359: - m[5,0,24] - m[5,0,25] - m[5,0,26] - m[5,0,27] - m[5,1,24]
   - m[5,1,25] - m[5,1,26] - m[5,1,27] - 50000 c[5,6,0.0] >= -50000
 R1360: c[5,6,-3.0] = 0
 R1361: - m[5,0,26] - m[5,0,27] - m[5,1,24] - m[5,1,25] - 50000 c[5,6,-2.0]
   >= -50003
 R1362: m[5,0,26] + 2 m[5,1,24] + 3 m[5,1,25] - 50000 c[5,6,-2.0]
   >= -49997
 R1363: 2 m[5,0,26] + 3 m[5,0,27] + 2 m[5,1,24] + m[5,1,25]
   - 50000 c[5,6,-2.0] >= -49996
 R1364: c[5,6,-1.41504] = 0
 R1365: - m[5,0,24] - 2 m[5,0,25] - 6649 m[5,0,26] + 6645 m[5,0,27]
   - 6645 m[5,1,24] - 4 m[5,1,25] - 2 m[5,1,26] - 3 m[5,1,27]
   - 50000 c[5,6,-1.0] >= -56656
 R1366: - 4 m[5,0,24] - 7 m[5,0,25] + 2 m[5,0,26] - m[5,0,27] - m[5,1,24]
   + 2 m[5,1,25] - 6 m[5,1,26] - 6 m[5,1,27] - 50000 c[5,6,-1.0] >= -50018
 R1367: 1898 m[5,0,24] + 2848 m[5,0,25] + 1901 m[5,0,26] - 6649 m[5,0,27]
   + 6647 m[5,1,24] - 5698 m[5,1,25] + 1899 m[5,1,26] + 2849 m[5,1,27]
   - 50000 c[5,6,-1.0] >= -50951
 R1368: - m[5,0,24] + 11 m[5,0,25] + 5 m[5,0,26] + 9 m[5,1,24]
   + 11 m[5,1,25] + 5 m[5,1,26] - 2 m[5,1,27] - 50000 c[5,6,-1.0]
   >= -49992
 R1369: - m[5,0,24] + 2 m[5,0,25] + 6649 m[5,0,26] - 6646 m[5,0,27]
   - 6647 m[5,1,25] - 2 m[5,1,26] + 3 m[5,1,27] - 50000 c[5,6,-1.0]
   >= -56647
 R1370: 3 m[5,0,24] + 3 m[5,0,25] + 7 m[5,0,26] + 7 m[5,0,27] + 4 m[5,1,25]
   - m[5,1,26] - m[5,1,27] - 50000 c[5,6,-1.0] >= -49995
 R1371: 4 m[5,0,24] - 6 m[5,0,25] + 15 m[5,0,26] + 2 m[5,0,27] - m[5,1,24]
   - 8 m[5,1,25] + 16 m[5,1,26] + 6 m[5,1,27] - 50000 c[5,6,-1.0]
   >= -49999
 R1372: 3 m[5,0,24] - 4 m[5,0,25] - 16 m[5,0,26] - 9 m[5,1,24]
   + 20 m[5,1,25] + 4 m[5,1,26] + 8 m[5,1,27] - 50000 c[5,6,-1.0]
   >= -50009
 R1373: c[5,7,0.0] + c[5,7,-3.0] + c[5,7,-2.0] + c[5,7,-1.41504]
   + c[5,7,-1.0] = 1
 R1374: - m[5,0,28] - m[5,0,29] - m[5,0,30] - m[5,0,31] - m[5,1,28]
   - m[5,1,29] - m[5,1,30] - m[5,1,31] - 50000 c[5,7,0.0] >= -50000
 R1375: c[5,7,-3.0] = 0
 R1376: - m[5,0,30] - m[5,0,31] - m[5,1,28] - m[5,1,29] - 50000 c[5,7,-2.0]
   >= -50003
 R1377: m[5,0,30] + 2 m[5,1,28] + 3 m[5,1,29] - 50000 c[5,7,-2.0]
   >= -49997
 R1378: 2 m[5,0,30] + 3 m[5,0,31] + 2 m[5,1,28] + m[5,1,29]
   - 50000 c[5,7,-2.0] >= -49996
 R1379: c[5,7,-1.41504] = 0
 R1380: - m[5,0,28] - 2 m[5,0,29] - 6649 m[5,0,30] + 6645 m[5,0,31]
   - 6645 m[5,1,28] - 4 m[5,1,29] - 2 m[5,1,30] - 3 m[5,1,31]
   - 50000 c[5,7,-1.0] >= -56656
 R1381: - 4 m[5,0,28] - 7 m[5,0,29] + 2 m[5,0,30] - m[5,0,31] - m[5,1,28]
   + 2 m[5,1,29] - 6 m[5,1,30] - 6 m[5,1,31] - 50000 c[5,7,-1.0] >= -50018
 R1382: 1898 m[5,0,28] + 2848 m[5,0,29] + 1901 m[5,0,30] - 6649 m[5,0,31]
   + 6647 m[5,1,28] - 5698 m[5,1,29] + 1899 m[5,1,30] + 2849 m[5,1,31]
   - 50000 c[5,7,-1.0] >= -50951
 R1383: - m[5,0,28] + 11 m[5,0,29] + 5 m[5,0,30] + 9 m[5,1,28]
   + 11 m[5,1,29] + 5 m[5,1,30] - 2 m[5,1,31] - 50000 c[5,7,-1.0]
   >= -49992
 R1384: - m[5,0,28] + 2 m[5,0,29] + 6649 m[5,0,30] - 6646 m[5,0,31]
   - 6647 m[5,1,29] - 2 m[5,1,30] + 3 m[5,1,31] - 50000 c[5,7,-1.0]
   >= -56647
 R1385: 3 m[5,0,28] + 3 m[5,0,29] + 7 m[5,0,30] + 7 m[5,0,31] + 4 m[5,1,29]
   - m[5,1,30] - m[5,1,31] - 50000 c[5,7,-1.0] >= -49995
 R1386: 4 m[5,0,28] - 6 m[5,0,29] + 15 m[5,0,30] + 2 m[5,0,31] - m[5,1,28]
   - 8 m[5,1,29] + 16 m[5,1,30] + 6 m[5,1,31] - 50000 c[5,7,-1.0]
   >= -49999
 R1387: 3 m[5,0,28] - 4 m[5,0,29] - 16 m[5,0,30] - 9 m[5,1,28]
   + 20 m[5,1,29] + 4 m[5,1,30] + 8 m[5,1,31] - 50000 c[5,7,-1.0]
   >= -50009
 R1388: c[5,8,0.0] + c[5,8,-3.0] + c[5,8,-2.0] + c[5,8,-1.41504]
   + c[5,8,-1.0] = 1
 R1389: - m[5,0,32] - m[5,0,33] - m[5,0,34] - m[5,0,35] - m[5,1,32]
   - m[5,1,33] - m[5,1,34] - m[5,1,35] - 50000 c[5,8,0.0] >= -50000
 R1390: c[5,8,-3.0] = 0
 R1391: - m[5,0,34] - m[5,0,35] - m[5,1,32] - m[5,1,33] - 50000 c[5,8,-2.0]
   >= -50003
 R1392: m[5,0,34] + 2 m[5,1,32] + 3 m[5,1,33] - 50000 c[5,8,-2.0]
   >= -49997
 R1393: 2 m[5,0,34] + 3 m[5,0,35] + 2 m[5,1,32] + m[5,1,33]
   - 50000 c[5,8,-2.0] >= -49996
 R1394: c[5,8,-1.41504] = 0
 R1395: - m[5,0,32] - 2 m[5,0,33] - 6649 m[5,0,34] + 6645 m[5,0,35]
   - 6645 m[5,1,32] - 4 m[5,1,33] - 2 m[5,1,34] - 3 m[5,1,35]
   - 50000 c[5,8,-1.0] >= -56656
 R1396: - 4 m[5,0,32] - 7 m[5,0,33] + 2 m[5,0,34] - m[5,0,35] - m[5,1,32]
   + 2 m[5,1,33] - 6 m[5,1,34] - 6 m[5,1,35] - 50000 c[5,8,-1.0] >= -50018
 R1397: 1898 m[5,0,32] + 2848 m[5,0,33] + 1901 m[5,0,34] - 6649 m[5,0,35]
   + 6647 m[5,1,32] - 5698 m[5,1,33] + 1899 m[5,1,34] + 2849 m[5,1,35]
   - 50000 c[5,8,-1.0] >= -50951
 R1398: - m[5,0,32] + 11 m[5,0,33] + 5 m[5,0,34] + 9 m[5,1,32]
   + 11 m[5,1,33] + 5 m[5,1,34] - 2 m[5,1,35] - 50000 c[5,8,-1.0]
   >= -49992
 R1399: - m[5,0,32] + 2 m[5,0,33] + 6649 m[5,0,34] - 6646 m[5,0,35]
   - 6647 m[5,1,33] - 2 m[5,1,34] + 3 m[5,1,35] - 50000 c[5,8,-1.0]
   >= -56647
 R1400: 3 m[5,0,32] + 3 m[5,0,33] + 7 m[5,0,34] + 7 m[5,0,35] + 4 m[5,1,33]
   - m[5,1,34] - m[5,1,35] - 50000 c[5,8,-1.0] >= -49995
 R1401: 4 m[5,0,32] - 6 m[5,0,33] + 15 m[5,0,34] + 2 m[5,0,35] - m[5,1,32]
   - 8 m[5,1,33] + 16 m[5,1,34] + 6 m[5,1,35] - 50000 c[5,8,-1.0]
   >= -49999
 R1402: 3 m[5,0,32] - 4 m[5,0,33] - 16 m[5,0,34] - 9 m[5,1,32]
   + 20 m[5,1,33] + 4 m[5,1,34] + 8 m[5,1,35] - 50000 c[5,8,-1.0]
   >= -50009
 R1403: c[5,9,0.0] + c[5,9,-3.0] + c[5,9,-2.0] + c[5,9,-1.41504]
   + c[5,9,-1.0] = 1
 R1404: - m[5,0,36] - m[5,0,37] - m[5,0,38] - m[5,0,39] - m[5,1,36]
   - m[5,1,37] - m[5,1,38] - m[5,1,39] - 50000 c[5,9,0.0] >= -50000
 R1405: c[5,9,-3.0] = 0
 R1406: - m[5,0,38] - m[5,0,39] - m[5,1,36] - m[5,1,37] - 50000 c[5,9,-2.0]
   >= -50003
 R1407: m[5,0,38] + 2 m[5,1,36] + 3 m[5,1,37] - 50000 c[5,9,-2.0]
   >= -49997
 R1408: 2 m[5,0,38] + 3 m[5,0,39] + 2 m[5,1,36] + m[5,1,37]
   - 50000 c[5,9,-2.0] >= -49996
 R1409: c[5,9,-1.41504] = 0
 R1410: - m[5,0,36] - 2 m[5,0,37] - 6649 m[5,0,38] + 6645 m[5,0,39]
   - 6645 m[5,1,36] - 4 m[5,1,37] - 2 m[5,1,38] - 3 m[5,1,39]
   - 50000 c[5,9,-1.0] >= -56656
 R1411: - 4 m[5,0,36] - 7 m[5,0,37] + 2 m[5,0,38] - m[5,0,39] - m[5,1,36]
   + 2 m[5,1,37] - 6 m[5,1,38] - 6 m[5,1,39] - 50000 c[5,9,-1.0] >= -50018
 R1412: 1898 m[5,0,36] + 2848 m[5,0,37] + 1901 m[5,0,38] - 6649 m[5,0,39]
   + 6647 m[5,1,36] - 5698 m[5,1,37] + 1899 m[5,1,38] + 2849 m[5,1,39]
   - 50000 c[5,9,-1.0] >= -50951
 R1413: - m[5,0,36] + 11 m[5,0,37] + 5 m[5,0,38] + 9 m[5,1,36]
   + 11 m[5,1,37] + 5 m[5,1,38] - 2 m[5,1,39] - 50000 c[5,9,-1.0]
   >= -49992
 R1414: - m[5,0,36] + 2 m[5,0,37] + 6649 m[5,0,38] - 6646 m[5,0,39]
   - 6647 m[5,1,37] - 2 m[5,1,38] + 3 m[5,1,39] - 50000 c[5,9,-1.0]
   >= -56647
 R1415: 3 m[5,0,36] + 3 m[5,0,37] + 7 m[5,0,38] + 7 m[5,0,39] + 4 m[5,1,37]
   - m[5,1,38] - m[5,1,39] - 50000 c[5,9,-1.0] >= -49995
 R1416: 4 m[5,0,36] - 6 m[5,0,37] + 15 m[5,0,38] + 2 m[5,0,39] - m[5,1,36]
   - 8 m[5,1,37] + 16 m[5,1,38] + 6 m[5,1,39] - 50000 c[5,9,-1.0]
   >= -49999
 R1417: 3 m[5,0,36] - 4 m[5,0,37] - 16 m[5,0,38] - 9 m[5,1,36]
   + 20 m[5,1,37] + 4 m[5,1,38] + 8 m[5,1,39] - 50000 c[5,9,-1.0]
   >= -50009
 R1418: c[5,10,0.0] + c[5,10,-3.0] + c[5,10,-2.0] + c[5,10,-1.41504]
   + c[5,10,-1.0] = 1
 R1419: - m[5,0,40] - m[5,0,41] - m[5,0,42] - m[5,0,43] - m[5,1,40]
   - m[5,1,41] - m[5,1,42] - m[5,1,43] - 50000 c[5,10,0.0] >= -50000
 R1420: c[5,10,-3.0] = 0
 R1421: - m[5,0,42] - m[5,0,43] - m[5,1,40] - m[5,1,41]
   - 50000 c[5,10,-2.0] >= -50003
 R1422: m[5,0,42] + 2 m[5,1,40] + 3 m[5,1,41] - 50000 c[5,10,-2.0]
   >= -49997
 R1423: 2 m[5,0,42] + 3 m[5,0,43] + 2 m[5,1,40] + m[5,1,41]
   - 50000 c[5,10,-2.0] >= -49996
 R1424: c[5,10,-1.41504] = 0
 R1425: - m[5,0,40] - 2 m[5,0,41] - 6649 m[5,0,42] + 6645 m[5,0,43]
   - 6645 m[5,1,40] - 4 m[5,1,41] - 2 m[5,1,42] - 3 m[5,1,43]
   - 50000 c[5,10,-1.0] >= -56656
 R1426: - 4 m[5,0,40] - 7 m[5,0,41] + 2 m[5,0,42] - m[5,0,43] - m[5,1,40]
   + 2 m[5,1,41] - 6 m[5,1,42] - 6 m[5,1,43] - 50000 c[5,10,-1.0]
   >= -50018
 R1427: 1898 m[5,0,40] + 2848 m[5,0,41] + 1901 m[5,0,42] - 6649 m[5,0,43]
   + 6647 m[5,1,40] - 5698 m[5,1,41] + 1899 m[5,1,42] + 2849 m[5,1,43]
   - 50000 c[5,10,-1.0] >= -50951
 R1428: - m[5,0,40] + 11 m[5,0,41] + 5 m[5,0,42] + 9 m[5,1,40]
   + 11 m[5,1,41] + 5 m[5,1,42] - 2 m[5,1,43] - 50000 c[5,10,-1.0]
   >= -49992
 R1429: - m[5,0,40] + 2 m[5,0,41] + 6649 m[5,0,42] - 6646 m[5,0,43]
   - 6647 m[5,1,41] - 2 m[5,1,42] + 3 m[5,1,43] - 50000 c[5,10,-1.0]
   >= -56647
 R1430: 3 m[5,0,40] + 3 m[5,0,41] + 7 m[5,0,42] + 7 m[5,0,43] + 4 m[5,1,41]
   - m[5,1,42] - m[5,1,43] - 50000 c[5,10,-1.0] >= -49995
 R1431: 4 m[5,0,40] - 6 m[5,0,41] + 15 m[5,0,42] + 2 m[5,0,43] - m[5,1,40]
   - 8 m[5,1,41] + 16 m[5,1,42] + 6 m[5,1,43] - 50000 c[5,10,-1.0]
   >= -49999
 R1432: 3 m[5,0,40] - 4 m[5,0,41] - 16 m[5,0,42] - 9 m[5,1,40]
   + 20 m[5,1,41] + 4 m[5,1,42] + 8 m[5,1,43] - 50000 c[5,10,-1.0]
   >= -50009
 R1433: c[5,11,0.0] + c[5,11,-3.0] + c[5,11,-2.0] + c[5,11,-1.41504]
   + c[5,11,-1.0] = 1
 R1434: - m[5,0,44] - m[5,0,45] - m[5,0,46] - m[5,0,47] - m[5,1,44]
   - m[5,1,45] - m[5,1,46] - m[5,1,47] - 50000 c[5,11,0.0] >= -50000
 R1435: c[5,11,-3.0] = 0
 R1436: - m[5,0,46] - m[5,0,47] - m[5,1,44] - m[5,1,45]
   - 50000 c[5,11,-2.0] >= -50003
 R1437: m[5,0,46] + 2 m[5,1,44] + 3 m[5,1,45] - 50000 c[5,11,-2.0]
   >= -49997
 R1438: 2 m[5,0,46] + 3 m[5,0,47] + 2 m[5,1,44] + m[5,1,45]
   - 50000 c[5,11,-2.0] >= -49996
 R1439: c[5,11,-1.41504] = 0
 R1440: - m[5,0,44] - 2 m[5,0,45] - 6649 m[5,0,46] + 6645 m[5,0,47]
   - 6645 m[5,1,44] - 4 m[5,1,45] - 2 m[5,1,46] - 3 m[5,1,47]
   - 50000 c[5,11,-1.0] >= -56656
 R1441: - 4 m[5,0,44] - 7 m[5,0,45] + 2 m[5,0,46] - m[5,0,47] - m[5,1,44]
   + 2 m[5,1,45] - 6 m[5,1,46] - 6 m[5,1,47] - 50000 c[5,11,-1.0]
   >= -50018
 R1442: 1898 m[5,0,44] + 2848 m[5,0,45] + 1901 m[5,0,46] - 6649 m[5,0,47]
   + 6647 m[5,1,44] - 5698 m[5,1,45] + 1899 m[5,1,46] + 2849 m[5,1,47]
   - 50000 c[5,11,-1.0] >= -50951
 R1443: - m[5,0,44] + 11 m[5,0,45] + 5 m[5,0,46] + 9 m[5,1,44]
   + 11 m[5,1,45] + 5 m[5,1,46] - 2 m[5,1,47] - 50000 c[5,11,-1.0]
   >= -49992
 R1444: - m[5,0,44] + 2 m[5,0,45] + 6649 m[5,0,46] - 6646 m[5,0,47]
   - 6647 m[5,1,45] - 2 m[5,1,46] + 3 m[5,1,47] - 50000 c[5,11,-1.0]
   >= -56647
 R1445: 3 m[5,0,44] + 3 m[5,0,45] + 7 m[5,0,46] + 7 m[5,0,47] + 4 m[5,1,45]
   - m[5,1,46] - m[5,1,47] - 50000 c[5,11,-1.0] >= -49995
 R1446: 4 m[5,0,44] - 6 m[5,0,45] + 15 m[5,0,46] + 2 m[5,0,47] - m[5,1,44]
   - 8 m[5,1,45] + 16 m[5,1,46] + 6 m[5,1,47] - 50000 c[5,11,-1.0]
   >= -49999
 R1447: 3 m[5,0,44] - 4 m[5,0,45] - 16 m[5,0,46] - 9 m[5,1,44]
   + 20 m[5,1,45] + 4 m[5,1,46] + 8 m[5,1,47] - 50000 c[5,11,-1.0]
   >= -50009
 R1448: c[5,12,0.0] + c[5,12,-3.0] + c[5,12,-2.0] + c[5,12,-1.41504]
   + c[5,12,-1.0] = 1
 R1449: c[5,12,0.0] = 0
 R1450: c[5,12,-3.0] = 0
 R1451: m[5,0,49] + 3 m[5,0,50] + 2 m[5,1,49] - m[5,1,50] - 2 m[5,1,51]
   - 50000 c[5,12,-2.0] >= -50000
 R1452: - m[5,0,49] - 3 m[5,0,50] + 2 m[5,1,49] - m[5,1,50] + 2 m[5,1,51]
   - 50000 c[5,12,-2.0] >= -50002
 R1453: m[5,0,49] - 3 m[5,0,50] - 2 m[5,1,49] + m[5,1,50] - 2 m[5,1,51]
   - 50000 c[5,12,-2.0] >= -50004
 R1454: - m[5,0,49] + 3 m[5,0,50] - 2 m[5,1,49] + m[5,1,50] + 2 m[5,1,51]
   - 50000 c[5,12,-2.0] >= -50000
 R1455: c[5,12,-1.41504] = 0
 R1456: c[5,12,-1.0] = 0
 R1457: c[5,13,0.0] + c[5,13,-3.0] + c[5,13,-2.0] + c[5,13,-1.41504]
   + c[5,13,-1.0] = 1
 R1458: - m[5,0,52] - m[5,0,53] - m[5,0,54] - m[5,0,55] - m[5,1,52]
   - m[5,1,53] - m[5,1,54] - m[5,1,55] - 50000 c[5,13,0.0] >= -50000
 R1459: c[5,13,-3.0] = 0
 R1460: - m[5,0,54] - m[5,0,55] - m[5,1,52] - m[5,1,53]
   - 50000 c[5,13,-2.0] >= -50003
 R1461: m[5,0,54] + 2 m[5,1,52] + 3 m[5,1,53] - 50000 c[5,13,-2.0]
   >= -49997
 R1462: 2 m[5,0,54] + 3 m[5,0,55] + 2 m[5,1,52] + m[5,1,53]
   - 50000 c[5,13,-2.0] >= -49996
 R1463: c[5,13,-1.41504] = 0
 R1464: - m[5,0,52] - 2 m[5,0,53] - 6649 m[5,0,54] + 6645 m[5,0,55]
   - 6645 m[5,1,52] - 4 m[5,1,53] - 2 m[5,1,54] - 3 m[5,1,55]
   - 50000 c[5,13,-1.0] >= -56656
 R1465: - 4 m[5,0,52] - 7 m[5,0,53] + 2 m[5,0,54] - m[5,0,55] - m[5,1,52]
   + 2 m[5,1,53] - 6 m[5,1,54] - 6 m[5,1,55] - 50000 c[5,13,-1.0]
   >= -50018
 R1466: 1898 m[5,0,52] + 2848 m[5,0,53] + 1901 m[5,0,54] - 6649 m[5,0,55]
   + 6647 m[5,1,52] - 5698 m[5,1,53] + 1899 m[5,1,54] + 2849 m[5,1,55]
   - 50000 c[5,13,-1.0] >= -50951
 R1467: - m[5,0,52] + 11 m[5,0,53] + 5 m[5,0,54] + 9 m[5,1,52]
   + 11 m[5,1,53] + 5 m[5,1,54] - 2 m[5,1,55] - 50000 c[5,13,-1.0]
   >= -49992
 R1468: - m[5,0,52] + 2 m[5,0,53] + 6649 m[5,0,54] - 6646 m[5,0,55]
   - 6647 m[5,1,53] - 2 m[5,1,54] + 3 m[5,1,55] - 50000 c[5,13,-1.0]
   >= -56647
 R1469: 3 m[5,0,52] + 3 m[5,0,53] + 7 m[5,0,54] + 7 m[5,0,55] + 4 m[5,1,53]
   - m[5,1,54] - m[5,1,55] - 50000 c[5,13,-1.0] >= -49995
 R1470: 4 m[5,0,52] - 6 m[5,0,53] + 15 m[5,0,54] + 2 m[5,0,55] - m[5,1,52]
   - 8 m[5,1,53] + 16 m[5,1,54] + 6 m[5,1,55] - 50000 c[5,13,-1.0]
   >= -49999
 R1471: 3 m[5,0,52] - 4 m[5,0,53] - 16 m[5,0,54] - 9 m[5,1,52]
   + 20 m[5,1,53] + 4 m[5,1,54] + 8 m[5,1,55] - 50000 c[5,13,-1.0]
   >= -50009
 R1472: c[5,14,0.0] + c[5,14,-3.0] + c[5,14,-2.0] + c[5,14,-1.41504]
   + c[5,14,-1.0] = 1
 R1473: c[5,14,0.0] = 0
 R1474: c[5,14,-3.0] = 0
 R1475: m[5,0,57] + 3 m[5,0,58] + 2 m[5,1,57] - m[5,1,58] - 2 m[5,1,59]
   - 50000 c[5,14,-2.0] >= -50000
 R1476: - m[5,0,57] - 3 m[5,0,58] + 2 m[5,1,57] - m[5,1,58] + 2 m[5,1,59]
   - 50000 c[5,14,-2.0] >= -50002
 R1477: m[5,0,57] - 3 m[5,0,58] - 2 m[5,1,57] + m[5,1,58] - 2 m[5,1,59]
   - 50000 c[5,14,-2.0] >= -50004
 R1478: - m[5,0,57] + 3 m[5,0,58] - 2 m[5,1,57] + m[5,1,58] + 2 m[5,1,59]
   - 50000 c[5,14,-2.0] >= -50000
 R1479: c[5,14,-1.41504] = 0
 R1480: c[5,14,-1.0] = 0
 R1481: c[5,15,0.0] + c[5,15,-3.0] + c[5,15,-2.0] + c[5,15,-1.41504]
   + c[5,15,-1.0] = 1
 R1482: - m[5,0,60] - m[5,0,61] - m[5,0,62] - m[5,0,63] - m[5,1,60]
   - m[5,1,61] - m[5,1,62] - m[5,1,63] - 50000 c[5,15,0.0] >= -50000
 R1483: c[5,15,-3.0] = 0
 R1484: - m[5,0,62] - m[5,0,63] - m[5,1,60] - m[5,1,61]
   - 50000 c[5,15,-2.0] >= -50003
 R1485: m[5,0,62] + 2 m[5,1,60] + 3 m[5,1,61] - 50000 c[5,15,-2.0]
   >= -49997
 R1486: 2 m[5,0,62] + 3 m[5,0,63] + 2 m[5,1,60] + m[5,1,61]
   - 50000 c[5,15,-2.0] >= -49996
 R1487: c[5,15,-1.41504] = 0
 R1488: - m[5,0,60] - 2 m[5,0,61] - 6649 m[5,0,62] + 6645 m[5,0,63]
   - 6645 m[5,1,60] - 4 m[5,1,61] - 2 m[5,1,62] - 3 m[5,1,63]
   - 50000 c[5,15,-1.0] >= -56656
 R1489: - 4 m[5,0,60] - 7 m[5,0,61] + 2 m[5,0,62] - m[5,0,63] - m[5,1,60]
   + 2 m[5,1,61] - 6 m[5,1,62] - 6 m[5,1,63] - 50000 c[5,15,-1.0]
   >= -50018
 R1490: 1898 m[5,0,60] + 2848 m[5,0,61] + 1901 m[5,0,62] - 6649 m[5,0,63]
   + 6647 m[5,1,60] - 5698 m[5,1,61] + 1899 m[5,1,62] + 2849 m[5,1,63]
   - 50000 c[5,15,-1.0] >= -50951
 R1491: - m[5,0,60] + 11 m[5,0,61] + 5 m[5,0,62] + 9 m[5,1,60]
   + 11 m[5,1,61] + 5 m[5,1,62] - 2 m[5,1,63] - 50000 c[5,15,-1.0]
   >= -49992
 R1492: - m[5,0,60] + 2 m[5,0,61] + 6649 m[5,0,62] - 6646 m[5,0,63]
   - 6647 m[5,1,61] - 2 m[5,1,62] + 3 m[5,1,63] - 50000 c[5,15,-1.0]
   >= -56647
 R1493: 3 m[5,0,60] + 3 m[5,0,61] + 7 m[5,0,62] + 7 m[5,0,63] + 4 m[5,1,61]
   - m[5,1,62] - m[5,1,63] - 50000 c[5,15,-1.0] >= -49995
 R1494: 4 m[5,0,60] - 6 m[5,0,61] + 15 m[5,0,62] + 2 m[5,0,63] - m[5,1,60]
   - 8 m[5,1,61] + 16 m[5,1,62] + 6 m[5,1,63] - 50000 c[5,15,-1.0]
   >= -49999
 R1495: 3 m[5,0,60] - 4 m[5,0,61] - 16 m[5,0,62] - 9 m[5,1,60]
   + 20 m[5,1,61] + 4 m[5,1,62] + 8 m[5,1,63] - 50000 c[5,15,-1.0]
   >= -50009
 R1496: c[6,0,0.0] + c[6,0,-3.0] + c[6,0,-2.0] + c[6,0,-1.41504]
   + c[6,0,-1.0] = 1
 R1497: - m[6,0,0] - m[6,0,1] - m[6,0,2] - m[6,0,3] - m[6,1,0] - m[6,1,1]
   - m[6,1,2] - m[6,1,3] - 50000 c[6,0,0.0] >= -50000
 R1498: c[6,0,-3.0] = 0
 R1499: - m[6,0,2] - m[6,0,3] - m[6,1,0] - m[6,1,1] - 50000 c[6,0,-2.0]
   >= -50003
 R1500: m[6,0,2] + 2 m[6,1,0] + 3 m[6,1,1] - 50000 c[6,0,-2.0] >= -49997
 R1501: 2 m[6,0,2] + 3 m[6,0,3] + 2 m[6,1,0] + m[6,1,1] - 50000 c[6,0,-2.0]
   >= -49996
 R1502: c[6,0,-1.41504] = 0
 R1503: - m[6,0,0] - 2 m[6,0,1] - 6649 m[6,0,2] + 6645 m[6,0,3]
   - 6645 m[6,1,0] - 4 m[6,1,1] - 2 m[6,1,2] - 3 m[6,1,3]
   - 50000 c[6,0,-1.0] >= -56656
 R1504: - 4 m[6,0,0] - 7 m[6,0,1] + 2 m[6,0,2] - m[6,0,3] - m[6,1,0]
   + 2 m[6,1,1] - 6 m[6,1,2] - 6 m[6,1,3] - 50000 c[6,0,-1.0] >= -50018
 R1505: 1898 m[6,0,0] + 2848 m[6,0,1] + 1901 m[6,0,2] - 6649 m[6,0,3]
   + 6647 m[6,1,0] - 5698 m[6,1,1] + 1899 m[6,1,2] + 2849 m[6,1,3]
   - 50000 c[6,0,-1.0] >= -50951
 R1506: - m[6,0,0] + 11 m[6,0,1] + 5 m[6,0,2] + 9 m[6,1,0] + 11 m[6,1,1]
   + 5 m[6,1,2] - 2 m[6,1,3] - 50000 c[6,0,-1.0] >= -49992
 R1507: - m[6,0,0] + 2 m[6,0,1] + 6649 m[6,0,2] - 6646 m[6,0,3]
   - 6647 m[6,1,1] - 2 m[6,1,2] + 3 m[6,1,3] - 50000 c[6,0,-1.0] >= -56647
 R1508: 3 m[6,0,0] + 3 m[6,0,1] + 7 m[6,0,2] + 7 m[6,0,3] + 4 m[6,1,1]
   - m[6,1,2] - m[6,1,3] - 50000 c[6,0,-1.0] >= -49995
 R1509: 4 m[6,0,0] - 6 m[6,0,1] + 15 m[6,0,2] + 2 m[6,0,3] - m[6,1,0]
   - 8 m[6,1,1] + 16 m[6,1,2] + 6 m[6,1,3] - 50000 c[6,0,-1.0] >= -49999
 R1510: 3 m[6,0,0] - 4 m[6,0,1] - 16 m[6,0,2] - 9 m[6,1,0] + 20 m[6,1,1]
   + 4 m[6,1,2] + 8 m[6,1,3] - 50000 c[6,0,-1.0] >= -50009
 R1511: c[6,1,0.0] + c[6,1,-3.0] + c[6,1,-2.0] + c[6,1,-1.41504]
   + c[6,1,-1.0] = 1
 R1512: - m[6,0,4] - m[6,0,5] - m[6,0,6] - m[6,0,7] - m[6,1,4] - m[6,1,5]
   - m[6,1,6] - m[6,1,7] - 50000 c[6,1,0.0] >= -50000
 R1513: c[6,1,-3.0] = 0
 R1514: - m[6,0,6] - m[6,0,7] - m[6,1,4] - m[6,1,5] - 50000 c[6,1,-2.0]
   >= -50003
 R1515: m[6,0,6] + 2 m[6,1,4] + 3 m[6,1,5] - 50000 c[6,1,-2.0] >= -49997
 R1516: 2 m[6,0,6] + 3 m[6,0,7] + 2 m[6,1,4] + m[6,1,5] - 50000 c[6,1,-2.0]
   >= -49996
 R1517: c[6,1,-1.41504] = 0
 R1518: - m[6,0,4] - 2 m[6,0,5] - 6649 m[6,0,6] + 6645 m[6,0,7]
   - 6645 m[6,1,4] - 4 m[6,1,5] - 2 m[6,1,6] - 3 m[6,1,7]
   - 50000 c[6,1,-1.0] >= -56656
 R1519: - 4 m[6,0,4] - 7 m[6,0,5] + 2 m[6,0,6] - m[6,0,7] - m[6,1,4]
   + 2 m[6,1,5] - 6 m[6,1,6] - 6 m[6,1,7] - 50000 c[6,1,-1.0] >= -50018
 R1520: 1898 m[6,0,4] + 2848 m[6,0,5] + 1901 m[6,0,6] - 6649 m[6,0,7]
   + 6647 m[6,1,4] - 5698 m[6,1,5] + 1899 m[6,1,6] + 2849 m[6,1,7]
   - 50000 c[6,1,-1.0] >= -50951
 R1521: - m[6,0,4] + 11 m[6,0,5] + 5 m[6,0,6] + 9 m[6,1,4] + 11 m[6,1,5]
   + 5 m[6,1,6] - 2 m[6,1,7] - 50000 c[6,1,-1.0] >= -49992
 R1522: - m[6,0,4] + 2 m[6,0,5] + 6649 m[6,0,6] - 6646 m[6,0,7]
   - 6647 m[6,1,5] - 2 m[6,1,6] + 3 m[6,1,7] - 50000 c[6,1,-1.0] >= -56647
 R1523: 3 m[6,0,4] + 3 m[6,0,5] + 7 m[6,0,6] + 7 m[6,0,7] + 4 m[6,1,5]
   - m[6,1,6] - m[6,1,7] - 50000 c[6,1,-1.0] >= -49995
 R1524: 4 m[6,0,4] - 6 m[6,0,5] + 15 m[6,0,6] + 2 m[6,0,7] - m[6,1,4]
   - 8 m[6,1,5] + 16 m[6,1,6] + 6 m[6,1,7] - 50000 c[6,1,-1.0] >= -49999
 R1525: 3 m[6,0,4] - 4 m[6,0,5] - 16 m[6,0,6] - 9 m[6,1,4] + 20 m[6,1,5]
   + 4 m[6,1,6] + 8 m[6,1,7] - 50000 c[6,1,-1.0] >= -50009
 R1526: c[6,2,0.0] + c[6,2,-3.0] + c[6,2,-2.0] + c[6,2,-1.41504]
   + c[6,2,-1.0] = 1
 R1527: - m[6,0,8] - m[6,0,9] - m[6,0,10] - m[6,0,11] - m[6,1,8] - m[6,1,9]
   - m[6,1,10] - m[6,1,11] - 50000 c[6,2,0.0] >= -50000
 R1528: c[6,2,-3.0] = 0
 R1529: - m[6,0,10] - m[6,0,11] - m[6,1,8] - m[6,1,9] - 50000 c[6,2,-2.0]
   >= -50003
 R1530: m[6,0,10] + 2 m[6,1,8] + 3 m[6,1,9] - 50000 c[6,2,-2.0] >= -49997
 R1531: 2 m[6,0,10] + 3 m[6,0,11] + 2 m[6,1,8] + m[6,1,9]
   - 50000 c[6,2,-2.0] >= -49996
 R1532: c[6,2,-1.41504] = 0
 R1533: - m[6,0,8] - 2 m[6,0,9] - 6649 m[6,0,10] + 6645 m[6,0,11]
   - 6645 m[6,1,8] - 4 m[6,1,9] - 2 m[6,1,10] - 3 m[6,1,11]
   - 50000 c[6,2,-1.0] >= -56656
 R1534: - 4 m[6,0,8] - 7 m[6,0,9] + 2 m[6,0,10] - m[6,0,11] - m[6,1,8]
   + 2 m[6,1,9] - 6 m[6,1,10] - 6 m[6,1,11] - 50000 c[6,2,-1.0] >= -50018
 R1535: 1898 m[6,0,8] + 2848 m[6,0,9] + 1901 m[6,0,10] - 6649 m[6,0,11]
   + 6647 m[6,1,8] - 5698 m[6,1,9] + 1899 m[6,1,10] + 2849 m[6,1,11]
   - 50000 c[6,2,-1.0] >= -50951
 R1536: - m[6,0,8] + 11 m[6,0,9] + 5 m[6,0,10] + 9 m[6,1,8] + 11 m[6,1,9]
   + 5 m[6,1,10] - 2 m[6,1,11] - 50000 c[6,2,-1.0] >= -49992
 R1537: - m[6,0,8] + 2 m[6,0,9] + 6649 m[6,0,10] - 6646 m[6,0,11]
   - 6647 m[6,1,9] - 2 m[6,1,10] + 3 m[6,1,11] - 50000 c[6,2,-1.0]
   >= -56647
 R1538: 3 m[6,0,8] + 3 m[6,0,9] + 7 m[6,0,10] + 7 m[6,0,11] + 4 m[6,1,9]
   - m[6,1,10] - m[6,1,11] - 50000 c[6,2,-1.0] >= -49995
 R1539: 4 m[6,0,8] - 6 m[6,0,9] + 15 m[6,0,10] + 2 m[6,0,11] - m[6,1,8]
   - 8 m[6,1,9] + 16 m[6,1,10] + 6 m[6,1,11] - 50000 c[6,2,-1.0] >= -49999
 R1540: 3 m[6,0,8] - 4 m[6,0,9] - 16 m[6,0,10] - 9 m[6,1,8] + 20 m[6,1,9]
   + 4 m[6,1,10] + 8 m[6,1,11] - 50000 c[6,2,-1.0] >= -50009
 R1541: c[6,3,0.0] + c[6,3,-3.0] + c[6,3,-2.0] + c[6,3,-1.41504]
   + c[6,3,-1.0] = 1
 R1542: c[6,3,0.0] = 0
 R1543: - m[6,0,13] - m[6,0,15] - m[6,1,14] - 50000 c[6,3,-3.0] >= -50002
 R1544: m[6,0,13] + m[6,0,15] - m[6,1,14] - 50000 c[6,3,-3.0] >= -50000
 R1545: - m[6,0,13] + m[6,0,15] + m[6,1,14] - 50000 c[6,3,-3.0] >= -50000
 R1546: m[6,0,13] - m[6,0,15] + m[6,1,14] - 50000 c[6,3,-3.0] >= -50000
 R1547: c[6,3,-2.0] = 0
 R1548: c[6,3,-1.41504] = 0
 R1549: c[6,3,-1.0] = 0
 R1550: c[6,4,0.0] + c[6,4,-3.0] + c[6,4,-2.0] + c[6,4,-1.41504]
   + c[6,4,-1.0] = 1
 R1551: - m[6,0,16] - m[6,0,17] - m[6,0,18] - m[6,0,19] - m[6,1,16]
   - m[6,1,17] - m[6,1,18] - m[6,1,19] - 50000 c[6,4,0.0] >= -50000
 R1552: c[6,4,-3.0] = 0
 R1553: - m[6,0,18] - m[6,0,19] - m[6,1,16] - m[6,1,17] - 50000 c[6,4,-2.0]
   >= -50003
 R1554: m[6,0,18] + 2 m[6,1,16] + 3 m[6,1,17] - 50000 c[6,4,-2.0]
   >= -49997
 R1555: 2 m[6,0,18] + 3 m[6,0,19] + 2 m[6,1,16] + m[6,1,17]
   - 50000 c[6,4,-2.0] >= -49996
 R1556: c[6,4,-1.41504] = 0
 R1557: - m[6,0,16] - 2 m[6,0,17] - 6649 m[6,0,18] + 6645 m[6,0,19]
   - 6645 m[6,1,16] - 4 m[6,1,17] - 2 m[6,1,18] - 3 m[6,1,19]
   - 50000 c[6,4,-1.0] >= -56656
 R1558: - 4 m[6,0,16] - 7 m[6,0,17] + 2 m[6,0,18] - m[6,0,19] - m[6,1,16]
   + 2 m[6,1,17] - 6 m[6,1,18] - 6 m[6,1,19] - 50000 c[6,4,-1.0] >= -50018
 R1559: 1898 m[6,0,16] + 2848 m[6,0,17] + 1901 m[6,0,18] - 6649 m[6,0,19]
   + 6647 m[6,1,16] - 5698 m[6,1,17] + 1899 m[6,1,18] + 2849 m[6,1,19]
   - 50000 c[6,4,-1.0] >= -50951
 R1560: - m[6,0,16] + 11 m[6,0,17] + 5 m[6,0,18] + 9 m[6,1,16]
   + 11 m[6,1,17] + 5 m[6,1,18] - 2 m[6,1,19] - 50000 c[6,4,-1.0]
   >= -49992
 R1561: - m[6,0,16] + 2 m[6,0,17] + 6649 m[6,0,18] - 6646 m[6,0,19]
   - 6647 m[6,1,17] - 2 m[6,1,18] + 3 m[6,1,19] - 50000 c[6,4,-1.0]
   >= -56647
 R1562: 3 m[6,0,16] + 3 m[6,0,17] + 7 m[6,0,18] + 7 m[6,0,19] + 4 m[6,1,17]
   - m[6,1,18] - m[6,1,19] - 50000 c[6,4,-1.0] >= -49995
 R1563: 4 m[6,0,16] - 6 m[6,0,17] + 15 m[6,0,18] + 2 m[6,0,19] - m[6,1,16]
   - 8 m[6,1,17] + 16 m[6,1,18] + 6 m[6,1,19] - 50000 c[6,4,-1.0]
   >= -49999
 R1564: 3 m[6,0,16] - 4 m[6,0,17] - 16 m[6,0,18] - 9 m[6,1,16]
   + 20 m[6,1,17] + 4 m[6,1,18] + 8 m[6,1,19] - 50000 c[6,4,-1.0]
   >= -50009
 R1565: c[6,5,0.0] + c[6,5,-3.0] + c[6,5,-2.0] + c[6,5,-1.41504]
   + c[6,5,-1.0] = 1
 R1566: - m[6,0,20] - m[6,0,21] - m[6,0,22] - m[6,0,23] - m[6,1,20]
   - m[6,1,21] - m[6,1,22] - m[6,1,23] - 50000 c[6,5,0.0] >= -50000
 R1567: c[6,5,-3.0] = 0
 R1568: - m[6,0,22] - m[6,0,23] - m[6,1,20] - m[6,1,21] - 50000 c[6,5,-2.0]
   >= -50003
 R1569: m[6,0,22] + 2 m[6,1,20] + 3 m[6,1,21] - 50000 c[6,5,-2.0]
   >= -49997
 R1570: 2 m[6,0,22] + 3 m[6,0,23] + 2 m[6,1,20] + m[6,1,21]
   - 50000 c[6,5,-2.0] >= -49996
 R1571: c[6,5,-1.41504] = 0
 R1572: - m[6,0,20] - 2 m[6,0,21] - 6649 m[6,0,22] + 6645 m[6,0,23]
   - 6645 m[6,1,20] - 4 m[6,1,21] - 2 m[6,1,22] - 3 m[6,1,23]
   - 50000 c[6,5,-1.0] >= -56656
 R1573: - 4 m[6,0,20] - 7 m[6,0,21] + 2 m[6,0,22] - m[6,0,23] - m[6,1,20]
   + 2 m[6,1,21] - 6 m[6,1,22] - 6 m[6,1,23] - 50000 c[6,5,-1.0] >= -50018
 R1574: 1898 m[6,0,20] + 2848 m[6,0,21] + 1901 m[6,0,22] - 6649 m[6,0,23]
   + 6647 m[6,1,20] - 5698 m[6,1,21] + 1899 m[6,1,22] + 2849 m[6,1,23]
   - 50000 c[6,5,-1.0] >= -50951
 R1575: - m[6,0,20] + 11 m[6,0,21] + 5 m[6,0,22] + 9 m[6,1,20]
   + 11 m[6,1,21] + 5 m[6,1,22] - 2 m[6,1,23] - 50000 c[6,5,-1.0]
   >= -49992
 R1576: - m[6,0,20] + 2 m[6,0,21] + 6649 m[6,0,22] - 6646 m[6,0,23]
   - 6647 m[6,1,21] - 2 m[6,1,22] + 3 m[6,1,23] - 50000 c[6,5,-1.0]
   >= -56647
 R1577: 3 m[6,0,20] + 3 m[6,0,21] + 7 m[6,0,22] + 7 m[6,0,23] + 4 m[6,1,21]
   - m[6,1,22] - m[6,1,23] - 50000 c[6,5,-1.0] >= -49995
 R1578: 4 m[6,0,20] - 6 m[6,0,21] + 15 m[6,0,22] + 2 m[6,0,23] - m[6,1,20]
   - 8 m[6,1,21] + 16 m[6,1,22] + 6 m[6,1,23] - 50000 c[6,5,-1.0]
   >= -49999
 R1579: 3 m[6,0,20] - 4 m[6,0,21] - 16 m[6,0,22] - 9 m[6,1,20]
   + 20 m[6,1,21] + 4 m[6,1,22] + 8 m[6,1,23] - 50000 c[6,5,-1.0]
   >= -50009
 R1580: c[6,6,0.0] + c[6,6,-3.0] + c[6,6,-2.0] + c[6,6,-1.41504]
   + c[6,6,-1.0] = 1
 R1581: - m[6,0,24] - m[6,0,25] - m[6,0,26] - m[6,0,27] - m[6,1,24]
   - m[6,1,25] - m[6,1,26] - m[6,1,27] - 50000 c[6,6,0.0] >= -50000
 R1582: c[6,6,-3.0] = 0
 R1583: - m[6,0,26] - m[6,0,27] - m[6,1,24] - m[6,1,25] - 50000 c[6,6,-2.0]
   >= -50003
 R1584: m[6,0,26] + 2 m[6,1,24] + 3 m[6,1,25] - 50000 c[6,6,-2.0]
   >= -49997
 R1585: 2 m[6,0,26] + 3 m[6,0,27] + 2 m[6,1,24] + m[6,1,25]
   - 50000 c[6,6,-2.0] >= -49996
 R1586: c[6,6,-1.41504] = 0
 R1587: - m[6,0,24] - 2 m[6,0,25] - 6649 m[6,0,26] + 6645 m[6,0,27]
   - 6645 m[6,1,24] - 4 m[6,1,25] - 2 m[6,1,26] - 3 m[6,1,27]
   - 50000 c[6,6,-1.0] >= -56656
 R1588: - 4 m[6,0,24] - 7 m[6,0,25] + 2 m[6,0,26] - m[6,0,27] - m[6,1,24]
   + 2 m[6,1,25] - 6 m[6,1,26] - 6 m[6,1,27] - 50000 c[6,6,-1.0] >= -50018
 R1589: 1898 m[6,0,24] + 2848 m[6,0,25] + 1901 m[6,0,26] - 6649 m[6,0,27]
   + 6647 m[6,1,24] - 5698 m[6,1,25] + 1899 m[6,1,26] + 2849 m[6,1,27]
   - 50000 c[6,6,-1.0] >= -50951
 R1590: - m[6,0,24] + 11 m[6,0,25] + 5 m[6,0,26] + 9 m[6,1,24]
   + 11 m[6,1,25] + 5 m[6,1,26] - 2 m[6,1,27] - 50000 c[6,6,-1.0]
   >= -49992
 R1591: - m[6,0,24] + 2 m[6,0,25] + 6649 m[6,0,26] - 6646 m[6,0,27]
   - 6647 m[6,1,25] - 2 m[6,1,26] + 3 m[6,1,27] - 50000 c[6,6,-1.0]
   >= -56647
 R1592: 3 m[6,0,24] + 3 m[6,0,25] + 7 m[6,0,26] + 7 m[6,0,27] + 4 m[6,1,25]
   - m[6,1,26] - m[6,1,27] - 50000 c[6,6,-1.0] >= -49995
 R1593: 4 m[6,0,24] - 6 m[6,0,25] + 15 m[6,0,26] + 2 m[6,0,27] - m[6,1,24]
   - 8 m[6,1,25] + 16 m[6,1,26] + 6 m[6,1,27] - 50000 c[6,6,-1.0]
   >= -49999
 R1594: 3 m[6,0,24] - 4 m[6,0,25] - 16 m[6,0,26] - 9 m[6,1,24]
   + 20 m[6,1,25] + 4 m[6,1,26] + 8 m[6,1,27] - 50000 c[6,6,-1.0]
   >= -50009
 R1595: c[6,7,0.0] + c[6,7,-3.0] + c[6,7,-2.0] + c[6,7,-1.41504]
   + c[6,7,-1.0] = 1
 R1596: - m[6,0,28] - m[6,0,29] - m[6,0,30] - m[6,0,31] - m[6,1,28]
   - m[6,1,29] - m[6,1,30] - m[6,1,31] - 50000 c[6,7,0.0] >= -50000
 R1597: c[6,7,-3.0] = 0
 R1598: - m[6,0,30] - m[6,0,31] - m[6,1,28] - m[6,1,29] - 50000 c[6,7,-2.0]
   >= -50003
 R1599: m[6,0,30] + 2 m[6,1,28] + 3 m[6,1,29] - 50000 c[6,7,-2.0]
   >= -49997
 R1600: 2 m[6,0,30] + 3 m[6,0,31] + 2 m[6,1,28] + m[6,1,29]
   - 50000 c[6,7,-2.0] >= -49996
 R1601: c[6,7,-1.41504] = 0
 R1602: - m[6,0,28] - 2 m[6,0,29] - 6649 m[6,0,30] + 6645 m[6,0,31]
   - 6645 m[6,1,28] - 4 m[6,1,29] - 2 m[6,1,30] - 3 m[6,1,31]
   - 50000 c[6,7,-1.0] >= -56656
 R1603: - 4 m[6,0,28] - 7 m[6,0,29] + 2 m[6,0,30] - m[6,0,31] - m[6,1,28]
   + 2 m[6,1,29] - 6 m[6,1,30] - 6 m[6,1,31] - 50000 c[6,7,-1.0] >= -50018
 R1604: 1898 m[6,0,28] + 2848 m[6,0,29] + 1901 m[6,0,30] - 6649 m[6,0,31]
   + 6647 m[6,1,28] - 5698 m[6,1,29] + 1899 m[6,1,30] + 2849 m[6,1,31]
   - 50000 c[6,7,-1.0] >= -50951
 R1605: - m[6,0,28] + 11 m[6,0,29] + 5 m[6,0,30] + 9 m[6,1,28]
   + 11 m[6,1,29] + 5 m[6,1,30] - 2 m[6,1,31] - 50000 c[6,7,-1.0]
   >= -49992
 R1606: - m[6,0,28] + 2 m[6,0,29] + 6649 m[6,0,30] - 6646 m[6,0,31]
   - 6647 m[6,1,29] - 2 m[6,1,30] + 3 m[6,1,31] - 50000 c[6,7,-1.0]
   >= -56647
 R1607: 3 m[6,0,28] + 3 m[6,0,29] + 7 m[6,0,30] + 7 m[6,0,31] + 4 m[6,1,29]
   - m[6,1,30] - m[6,1,31] - 50000 c[6,7,-1.0] >= -49995
 R1608: 4 m[6,0,28] - 6 m[6,0,29] + 15 m[6,0,30] + 2 m[6,0,31] - m[6,1,28]
   - 8 m[6,1,29] + 16 m[6,1,30] + 6 m[6,1,31] - 50000 c[6,7,-1.0]
   >= -49999
 R1609: 3 m[6,0,28] - 4 m[6,0,29] - 16 m[6,0,30] - 9 m[6,1,28]
   + 20 m[6,1,29] + 4 m[6,1,30] + 8 m[6,1,31] - 50000 c[6,7,-1.0]
   >= -50009
 R1610: c[6,8,0.0] + c[6,8,-3.0] + c[6,8,-2.0] + c[6,8,-1.41504]
   + c[6,8,-1.0] = 1
 R1611: - m[6,0,32] - m[6,0,33] - m[6,0,34] - m[6,0,35] - m[6,1,32]
   - m[6,1,33] - m[6,1,34] - m[6,1,35] - 50000 c[6,8,0.0] >= -50000
 R1612: c[6,8,-3.0] = 0
 R1613: - m[6,0,34] - m[6,0,35] - m[6,1,32] - m[6,1,33] - 50000 c[6,8,-2.0]
   >= -50003
 R1614: m[6,0,34] + 2 m[6,1,32] + 3 m[6,1,33] - 50000 c[6,8,-2.0]
   >= -49997
 R1615: 2 m[6,0,34] + 3 m[6,0,35] + 2 m[6,1,32] + m[6,1,33]
   - 50000 c[6,8,-2.0] >= -49996
 R1616: c[6,8,-1.41504] = 0
 R1617: - m[6,0,32] - 2 m[6,0,33] - 6649 m[6,0,34] + 6645 m[6,0,35]
   - 6645 m[6,1,32] - 4 m[6,1,33] - 2 m[6,1,34] - 3 m[6,1,35]
   - 50000 c[6,8,-1.0] >= -56656
 R1618: - 4 m[6,0,32] - 7 m[6,0,33] + 2 m[6,0,34] - m[6,0,35] - m[6,1,32]
   + 2 m[6,1,33] - 6 m[6,1,34] - 6 m[6,1,35] - 50000 c[6,8,-1.0] >= -50018
 R1619: 1898 m[6,0,32] + 2848 m[6,0,33] + 1901 m[6,0,34] - 6649 m[6,0,35]
   + 6647 m[6,1,32] - 5698 m[6,1,33] + 1899 m[6,1,34] + 2849 m[6,1,35]
   - 50000 c[6,8,-1.0] >= -50951
 R1620: - m[6,0,32] + 11 m[6,0,33] + 5 m[6,0,34] + 9 m[6,1,32]
   + 11 m[6,1,33] + 5 m[6,1,34] - 2 m[6,1,35] - 50000 c[6,8,-1.0]
   >= -49992
 R1621: - m[6,0,32] + 2 m[6,0,33] + 6649 m[6,0,34] - 6646 m[6,0,35]
   - 6647 m[6,1,33] - 2 m[6,1,34] + 3 m[6,1,35] - 50000 c[6,8,-1.0]
   >= -56647
 R1622: 3 m[6,0,32] + 3 m[6,0,33] + 7 m[6,0,34] + 7 m[6,0,35] + 4 m[6,1,33]
   - m[6,1,34] - m[6,1,35] - 50000 c[6,8,-1.0] >= -49995
 R1623: 4 m[6,0,32] - 6 m[6,0,33] + 15 m[6,0,34] + 2 m[6,0,35] - m[6,1,32]
   - 8 m[6,1,33] + 16 m[6,1,34] + 6 m[6,1,35] - 50000 c[6,8,-1.0]
   >= -49999
 R1624: 3 m[6,0,32] - 4 m[6,0,33] - 16 m[6,0,34] - 9 m[6,1,32]
   + 20 m[6,1,33] + 4 m[6,1,34] + 8 m[6,1,35] - 50000 c[6,8,-1.0]
   >= -50009
 R1625: c[6,9,0.0] + c[6,9,-3.0] + c[6,9,-2.0] + c[6,9,-1.41504]
   + c[6,9,-1.0] = 1
 R1626: - m[6,0,36] - m[6,0,37] - m[6,0,38] - m[6,0,39] - m[6,1,36]
   - m[6,1,37] - m[6,1,38] - m[6,1,39] - 50000 c[6,9,0.0] >= -50000
 R1627: c[6,9,-3.0] = 0
 R1628: - m[6,0,38] - m[6,0,39] - m[6,1,36] - m[6,1,37] - 50000 c[6,9,-2.0]
   >= -50003
 R1629: m[6,0,38] + 2 m[6,1,36] + 3 m[6,1,37] - 50000 c[6,9,-2.0]
   >= -49997
 R1630: 2 m[6,0,38] + 3 m[6,0,39] + 2 m[6,1,36] + m[6,1,37]
   - 50000 c[6,9,-2.0] >= -49996
 R1631: c[6,9,-1.41504] = 0
 R1632: - m[6,0,36] - 2 m[6,0,37] - 6649 m[6,0,38] + 6645 m[6,0,39]
   - 6645 m[6,1,36] - 4 m[6,1,37] - 2 m[6,1,38] - 3 m[6,1,39]
   - 50000 c[6,9,-1.0] >= -56656
 R1633: - 4 m[6,0,36] - 7 m[6,0,37] + 2 m[6,0,38] - m[6,0,39] - m[6,1,36]
   + 2 m[6,1,37] - 6 m[6,1,38] - 6 m[6,1,39] - 50000 c[6,9,-1.0] >= -50018
 R1634: 1898 m[6,0,36] + 2848 m[6,0,37] + 1901 m[6,0,38] - 6649 m[6,0,39]
   + 6647 m[6,1,36] - 5698 m[6,1,37] + 1899 m[6,1,38] + 2849 m[6,1,39]
   - 50000 c[6,9,-1.0] >= -50951
 R1635: - m[6,0,36] + 11 m[6,0,37] + 5 m[6,0,38] + 9 m[6,1,36]
   + 11 m[6,1,37] + 5 m[6,1,38] - 2 m[6,1,39] - 50000 c[6,9,-1.0]
   >= -49992
 R1636: - m[6,0,36] + 2 m[6,0,37] + 6649 m[6,0,38] - 6646 m[6,0,39]
   - 6647 m[6,1,37] - 2 m[6,1,38] + 3 m[6,1,39] - 50000 c[6,9,-1.0]
   >= -56647
 R1637: 3 m[6,0,36] + 3 m[6,0,37] + 7 m[6,0,38] + 7 m[6,0,39] + 4 m[6,1,37]
   - m[6,1,38] - m[6,1,39] - 50000 c[6,9,-1.0] >= -49995
 R1638: 4 m[6,0,36] - 6 m[6,0,37] + 15 m[6,0,38] + 2 m[6,0,39] - m[6,1,36]
   - 8 m[6,1,37] + 16 m[6,1,38] + 6 m[6,1,39] - 50000 c[6,9,-1.0]
   >= -49999
 R1639: 3 m[6,0,36] - 4 m[6,0,37] - 16 m[6,0,38] - 9 m[6,1,36]
   + 20 m[6,1,37] + 4 m[6,1,38] + 8 m[6,1,39] - 50000 c[6,9,-1.0]
   >= -50009
 R1640: c[6,10,0.0] + c[6,10,-3.0] + c[6,10,-2.0] + c[6,10,-1.41504]
   + c[6,10,-1.0] = 1
 R1641: - m[6,0,40] - m[6,0,41] - m[6,0,42] - m[6,0,43] - m[6,1,40]
   - m[6,1,41] - m[6,1,42] - m[6,1,43] - 50000 c[6,10,0.0] >= -50000
 R1642: c[6,10,-3.0] = 0
 R1643: - m[6,0,42] - m[6,0,43] - m[6,1,40] - m[6,1,41]
   - 50000 c[6,10,-2.0] >= -50003
 R1644: m[6,0,42] + 2 m[6,1,40] + 3 m[6,1,41] - 50000 c[6,10,-2.0]
   >= -49997
 R1645: 2 m[6,0,42] + 3 m[6,0,43] + 2 m[6,1,40] + m[6,1,41]
   - 50000 c[6,10,-2.0] >= -49996
 R1646: c[6,10,-1.41504] = 0
 R1647: - m[6,0,40] - 2 m[6,0,41] - 6649 m[6,0,42] + 6645 m[6,0,43]
   - 6645 m[6,1,40] - 4 m[6,1,41] - 2 m[6,1,42] - 3 m[6,1,43]
   - 50000 c[6,10,-1.0] >= -56656
 R1648: - 4 m[6,0,40] - 7 m[6,0,41] + 2 m[6,0,42] - m[6,0,43] - m[6,1,40]
   + 2 m[6,1,41] - 6 m[6,1,42] - 6 m[6,1,43] - 50000 c[6,10,-1.0]
   >= -50018
 R1649: 1898 m[6,0,40] + 2848 m[6,0,41] + 1901 m[6,0,42] - 6649 m[6,0,43]
   + 6647 m[6,1,40] - 5698 m[6,1,41] + 1899 m[6,1,42] + 2849 m[6,1,43]
   - 50000 c[6,10,-1.0] >= -50951
 R1650: - m[6,0,40] + 11 m[6,0,41] + 5 m[6,0,42] + 9 m[6,1,40]
   + 11 m[6,1,41] + 5 m[6,1,42] - 2 m[6,1,43] - 50000 c[6,10,-1.0]
   >= -49992
 R1651: - m[6,0,40] + 2 m[6,0,41] + 6649 m[6,0,42] - 6646 m[6,0,43]
   - 6647 m[6,1,41] - 2 m[6,1,42] + 3 m[6,1,43] - 50000 c[6,10,-1.0]
   >= -56647
 R1652: 3 m[6,0,40] + 3 m[6,0,41] + 7 m[6,0,42] + 7 m[6,0,43] + 4 m[6,1,41]
   - m[6,1,42] - m[6,1,43] - 50000 c[6,10,-1.0] >= -49995
 R1653: 4 m[6,0,40] - 6 m[6,0,41] + 15 m[6,0,42] + 2 m[6,0,43] - m[6,1,40]
   - 8 m[6,1,41] + 16 m[6,1,42] + 6 m[6,1,43] - 50000 c[6,10,-1.0]
   >= -49999
 R1654: 3 m[6,0,40] - 4 m[6,0,41] - 16 m[6,0,42] - 9 m[6,1,40]
   + 20 m[6,1,41] + 4 m[6,1,42] + 8 m[6,1,43] - 50000 c[6,10,-1.0]
   >= -50009
 R1655: c[6,11,0.0] + c[6,11,-3.0] + c[6,11,-2.0] + c[6,11,-1.41504]
   + c[6,11,-1.0] = 1
 R1656: c[6,11,0.0] = 0
 R1657: - m[6,0,45] - m[6,0,47] - m[6,1,46] - 50000 c[6,11,-3.0] >= -50002
 R1658: m[6,0,45] + m[6,0,47] - m[6,1,46] - 50000 c[6,11,-3.0] >= -50000
 R1659: - m[6,0,45] + m[6,0,47] + m[6,1,46] - 50000 c[6,11,-3.0] >= -50000
 R1660: m[6,0,45] - m[6,0,47] + m[6,1,46] - 50000 c[6,11,-3.0] >= -50000
 R1661: c[6,11,-2.0] = 0
 R1662: c[6,11,-1.41504] = 0
 R1663: c[6,11,-1.0] = 0
 R1664: c[6,12,0.0] + c[6,12,-3.0] + c[6,12,-2.0] + c[6,12,-1.41504]
   + c[6,12,-1.0] = 1
 R1665: - m[6,0,48] - m[6,0,49] - m[6,0,50] - m[6,0,51] - m[6,1,48]
   - m[6,1,49] - m[6,1,50] - m[6,1,51] - 50000 c[6,12,0.0] >= -50000
 R1666: c[6,12,-3.0] = 0
 R1667: - m[6,0,50] - m[6,0,51] - m[6,1,48] - m[6,1,49]
   - 50000 c[6,12,-2.0] >= -50003
 R1668: m[6,0,50] + 2 m[6,1,48] + 3 m[6,1,49] - 50000 c[6,12,-2.0]
   >= -49997
 R1669: 2 m[6,0,50] + 3 m[6,0,51] + 2 m[6,1,48] + m[6,1,49]
   - 50000 c[6,12,-2.0] >= -49996
 R1670: c[6,12,-1.41504] = 0
 R1671: - m[6,0,48] - 2 m[6,0,49] - 6649 m[6,0,50] + 6645 m[6,0,51]
   - 6645 m[6,1,48] - 4 m[6,1,49] - 2 m[6,1,50] - 3 m[6,1,51]
   - 50000 c[6,12,-1.0] >= -56656
 R1672: - 4 m[6,0,48] - 7 m[6,0,49] + 2 m[6,0,50] - m[6,0,51] - m[6,1,48]
   + 2 m[6,1,49] - 6 m[6,1,50] - 6 m[6,1,51] - 50000 c[6,12,-1.0]
   >= -50018
 R1673: 1898 m[6,0,48] + 2848 m[6,0,49] + 1901 m[6,0,50] - 6649 m[6,0,51]
   + 6647 m[6,1,48] - 5698 m[6,1,49] + 1899 m[6,1,50] + 2849 m[6,1,51]
   - 50000 c[6,12,-1.0] >= -50951
 R1674: - m[6,0,48] + 11 m[6,0,49] + 5 m[6,0,50] + 9 m[6,1,48]
   + 11 m[6,1,49] + 5 m[6,1,50] - 2 m[6,1,51] - 50000 c[6,12,-1.0]
   >= -49992
 R1675: - m[6,0,48] + 2 m[6,0,49] + 6649 m[6,0,50] - 6646 m[6,0,51]
   - 6647 m[6,1,49] - 2 m[6,1,50] + 3 m[6,1,51] - 50000 c[6,12,-1.0]
   >= -56647
 R1676: 3 m[6,0,48] + 3 m[6,0,49] + 7 m[6,0,50] + 7 m[6,0,51] + 4 m[6,1,49]
   - m[6,1,50] - m[6,1,51] - 50000 c[6,12,-1.0] >= -49995
 R1677: 4 m[6,0,48] - 6 m[6,0,49] + 15 m[6,0,50] + 2 m[6,0,51] - m[6,1,48]
   - 8 m[6,1,49] + 16 m[6,1,50] + 6 m[6,1,51] - 50000 c[6,12,-1.0]
   >= -49999
 R1678: 3 m[6,0,48] - 4 m[6,0,49] - 16 m[6,0,50] - 9 m[6,1,48]
   + 20 m[6,1,49] + 4 m[6,1,50] + 8 m[6,1,51] - 50000 c[6,12,-1.0]
   >= -50009
 R1679: c[6,13,0.0] + c[6,13,-3.0] + c[6,13,-2.0] + c[6,13,-1.41504]
   + c[6,13,-1.0] = 1
 R1680: - m[6,0,52] - m[6,0,53] - m[6,0,54] - m[6,0,55] - m[6,1,52]
   - m[6,1,53] - m[6,1,54] - m[6,1,55] - 50000 c[6,13,0.0] >= -50000
 R1681: c[6,13,-3.0] = 0
 R1682: - m[6,0,54] - m[6,0,55] - m[6,1,52] - m[6,1,53]
   - 50000 c[6,13,-2.0] >= -50003
 R1683: m[6,0,54] + 2 m[6,1,52] + 3 m[6,1,53] - 50000 c[6,13,-2.0]
   >= -49997
 R1684: 2 m[6,0,54] + 3 m[6,0,55] + 2 m[6,1,52] + m[6,1,53]
   - 50000 c[6,13,-2.0] >= -49996
 R1685: c[6,13,-1.41504] = 0
 R1686: - m[6,0,52] - 2 m[6,0,53] - 6649 m[6,0,54] + 6645 m[6,0,55]
   - 6645 m[6,1,52] - 4 m[6,1,53] - 2 m[6,1,54] - 3 m[6,1,55]
   - 50000 c[6,13,-1.0] >= -56656
 R1687: - 4 m[6,0,52] - 7 m[6,0,53] + 2 m[6,0,54] - m[6,0,55] - m[6,1,52]
   + 2 m[6,1,53] - 6 m[6,1,54] - 6 m[6,1,55] - 50000 c[6,13,-1.0]
   >= -50018
 R1688: 1898 m[6,0,52] + 2848 m[6,0,53] + 1901 m[6,0,54] - 6649 m[6,0,55]
   + 6647 m[6,1,52] - 5698 m[6,1,53] + 1899 m[6,1,54] + 2849 m[6,1,55]
   - 50000 c[6,13,-1.0] >= -50951
 R1689: - m[6,0,52] + 11 m[6,0,53] + 5 m[6,0,54] + 9 m[6,1,52]
   + 11 m[6,1,53] + 5 m[6,1,54] - 2 m[6,1,55] - 50000 c[6,13,-1.0]
   >= -49992
 R1690: - m[6,0,52] + 2 m[6,0,53] + 6649 m[6,0,54] - 6646 m[6,0,55]
   - 6647 m[6,1,53] - 2 m[6,1,54] + 3 m[6,1,55] - 50000 c[6,13,-1.0]
   >= -56647
 R1691: 3 m[6,0,52] + 3 m[6,0,53] + 7 m[6,0,54] + 7 m[6,0,55] + 4 m[6,1,53]
   - m[6,1,54] - m[6,1,55] - 50000 c[6,13,-1.0] >= -49995
 R1692: 4 m[6,0,52] - 6 m[6,0,53] + 15 m[6,0,54] + 2 m[6,0,55] - m[6,1,52]
   - 8 m[6,1,53] + 16 m[6,1,54] + 6 m[6,1,55] - 50000 c[6,13,-1.0]
   >= -49999
 R1693: 3 m[6,0,52] - 4 m[6,0,53] - 16 m[6,0,54] - 9 m[6,1,52]
   + 20 m[6,1,53] + 4 m[6,1,54] + 8 m[6,1,55] - 50000 c[6,13,-1.0]
   >= -50009
 R1694: c[6,14,0.0] + c[6,14,-3.0] + c[6,14,-2.0] + c[6,14,-1.41504]
   + c[6,14,-1.0] = 1
 R1695: - m[6,0,56] - m[6,0,57] - m[6,0,58] - m[6,0,59] - m[6,1,56]
   - m[6,1,57] - m[6,1,58] - m[6,1,59] - 50000 c[6,14,0.0] >= -50000
 R1696: c[6,14,-3.0] = 0
 R1697: - m[6,0,58] - m[6,0,59] - m[6,1,56] - m[6,1,57]
   - 50000 c[6,14,-2.0] >= -50003
 R1698: m[6,0,58] + 2 m[6,1,56] + 3 m[6,1,57] - 50000 c[6,14,-2.0]
   >= -49997
 R1699: 2 m[6,0,58] + 3 m[6,0,59] + 2 m[6,1,56] + m[6,1,57]
   - 50000 c[6,14,-2.0] >= -49996
 R1700: c[6,14,-1.41504] = 0
 R1701: - m[6,0,56] - 2 m[6,0,57] - 6649 m[6,0,58] + 6645 m[6,0,59]
   - 6645 m[6,1,56] - 4 m[6,1,57] - 2 m[6,1,58] - 3 m[6,1,59]
   - 50000 c[6,14,-1.0] >= -56656
 R1702: - 4 m[6,0,56] - 7 m[6,0,57] + 2 m[6,0,58] - m[6,0,59] - m[6,1,56]
   + 2 m[6,1,57] - 6 m[6,1,58] - 6 m[6,1,59] - 50000 c[6,14,-1.0]
   >= -50018
 R1703: 1898 m[6,0,56] + 2848 m[6,0,57] + 1901 m[6,0,58] - 6649 m[6,0,59]
   + 6647 m[6,1,56] - 5698 m[6,1,57] + 1899 m[6,1,58] + 2849 m[6,1,59]
   - 50000 c[6,14,-1.0] >= -50951
 R1704: - m[6,0,56] + 11 m[6,0,57] + 5 m[6,0,58] + 9 m[6,1,56]
   + 11 m[6,1,57] + 5 m[6,1,58] - 2 m[6,1,59] - 50000 c[6,14,-1.0]
   >= -49992
 R1705: - m[6,0,56] + 2 m[6,0,57] + 6649 m[6,0,58] - 6646 m[6,0,59]
   - 6647 m[6,1,57] - 2 m[6,1,58] + 3 m[6,1,59] - 50000 c[6,14,-1.0]
   >= -56647
 R1706: 3 m[6,0,56] + 3 m[6,0,57] + 7 m[6,0,58] + 7 m[6,0,59] + 4 m[6,1,57]
   - m[6,1,58] - m[6,1,59] - 50000 c[6,14,-1.0] >= -49995
 R1707: 4 m[6,0,56] - 6 m[6,0,57] + 15 m[6,0,58] + 2 m[6,0,59] - m[6,1,56]
   - 8 m[6,1,57] + 16 m[6,1,58] + 6 m[6,1,59] - 50000 c[6,14,-1.0]
   >= -49999
 R1708: 3 m[6,0,56] - 4 m[6,0,57] - 16 m[6,0,58] - 9 m[6,1,56]
   + 20 m[6,1,57] + 4 m[6,1,58] + 8 m[6,1,59] - 50000 c[6,14,-1.0]
   >= -50009
 R1709: c[6,15,0.0] + c[6,15,-3.0] + c[6,15,-2.0] + c[6,15,-1.41504]
   + c[6,15,-1.0] = 1
 R1710: - m[6,0,60] - m[6,0,61] - m[6,0,62] - m[6,0,63] - m[6,1,60]
   - m[6,1,61] - m[6,1,62] - m[6,1,63] - 50000 c[6,15,0.0] >= -50000
 R1711: c[6,15,-3.0] = 0
 R1712: - m[6,0,62] - m[6,0,63] - m[6,1,60] - m[6,1,61]
   - 50000 c[6,15,-2.0] >= -50003
 R1713: m[6,0,62] + 2 m[6,1,60] + 3 m[6,1,61] - 50000 c[6,15,-2.0]
   >= -49997
 R1714: 2 m[6,0,62] + 3 m[6,0,63] + 2 m[6,1,60] + m[6,1,61]
   - 50000 c[6,15,-2.0] >= -49996
 R1715: c[6,15,-1.41504] = 0
 R1716: - m[6,0,60] - 2 m[6,0,61] - 6649 m[6,0,62] + 6645 m[6,0,63]
   - 6645 m[6,1,60] - 4 m[6,1,61] - 2 m[6,1,62] - 3 m[6,1,63]
   - 50000 c[6,15,-1.0] >= -56656
 R1717: - 4 m[6,0,60] - 7 m[6,0,61] + 2 m[6,0,62] - m[6,0,63] - m[6,1,60]
   + 2 m[6,1,61] - 6 m[6,1,62] - 6 m[6,1,63] - 50000 c[6,15,-1.0]
   >= -50018
 R1718: 1898 m[6,0,60] + 2848 m[6,0,61] + 1901 m[6,0,62] - 6649 m[6,0,63]
   + 6647 m[6,1,60] - 5698 m[6,1,61] + 1899 m[6,1,62] + 2849 m[6,1,63]
   - 50000 c[6,15,-1.0] >= -50951
 R1719: - m[6,0,60] + 11 m[6,0,61] + 5 m[6,0,62] + 9 m[6,1,60]
   + 11 m[6,1,61] + 5 m[6,1,62] - 2 m[6,1,63] - 50000 c[6,15,-1.0]
   >= -49992
 R1720: - m[6,0,60] + 2 m[6,0,61] + 6649 m[6,0,62] - 6646 m[6,0,63]
   - 6647 m[6,1,61] - 2 m[6,1,62] + 3 m[6,1,63] - 50000 c[6,15,-1.0]
   >= -56647
 R1721: 3 m[6,0,60] + 3 m[6,0,61] + 7 m[6,0,62] + 7 m[6,0,63] + 4 m[6,1,61]
   - m[6,1,62] - m[6,1,63] - 50000 c[6,15,-1.0] >= -49995
 R1722: 4 m[6,0,60] - 6 m[6,0,61] + 15 m[6,0,62] + 2 m[6,0,63] - m[6,1,60]
   - 8 m[6,1,61] + 16 m[6,1,62] + 6 m[6,1,63] - 50000 c[6,15,-1.0]
   >= -49999
 R1723: 3 m[6,0,60] - 4 m[6,0,61] - 16 m[6,0,62] - 9 m[6,1,60]
   + 20 m[6,1,61] + 4 m[6,1,62] + 8 m[6,1,63] - 50000 c[6,15,-1.0]
   >= -50009
 R1724: c[7,0,0.0] + c[7,0,-3.0] + c[7,0,-2.0] + c[7,0,-1.41504]
   + c[7,0,-1.0] = 1
 R1725: - m[7,0,0] - m[7,0,1] - m[7,0,2] - m[7,0,3] - m[7,1,0] - m[7,1,1]
   - m[7,1,2] - m[7,1,3] - 50000 c[7,0,0.0] >= -50000
 R1726: c[7,0,-3.0] = 0
 R1727: - m[7,0,2] - m[7,0,3] - m[7,1,0] - m[7,1,1] - 50000 c[7,0,-2.0]
   >= -50003
 R1728: m[7,0,2] + 2 m[7,1,0] + 3 m[7,1,1] - 50000 c[7,0,-2.0] >= -49997
 R1729: 2 m[7,0,2] + 3 m[7,0,3] + 2 m[7,1,0] + m[7,1,1] - 50000 c[7,0,-2.0]
   >= -49996
 R1730: c[7,0,-1.41504] = 0
 R1731: - m[7,0,0] - 2 m[7,0,1] - 6649 m[7,0,2] + 6645 m[7,0,3]
   - 6645 m[7,1,0] - 4 m[7,1,1] - 2 m[7,1,2] - 3 m[7,1,3]
   - 50000 c[7,0,-1.0] >= -56656
 R1732: - 4 m[7,0,0] - 7 m[7,0,1] + 2 m[7,0,2] - m[7,0,3] - m[7,1,0]
   + 2 m[7,1,1] - 6 m[7,1,2] - 6 m[7,1,3] - 50000 c[7,0,-1.0] >= -50018
 R1733: 1898 m[7,0,0] + 2848 m[7,0,1] + 1901 m[7,0,2] - 6649 m[7,0,3]
   + 6647 m[7,1,0] - 5698 m[7,1,1] + 1899 m[7,1,2] + 2849 m[7,1,3]
   - 50000 c[7,0,-1.0] >= -50951
 R1734: - m[7,0,0] + 11 m[7,0,1] + 5 m[7,0,2] + 9 m[7,1,0] + 11 m[7,1,1]
   + 5 m[7,1,2] - 2 m[7,1,3] - 50000 c[7,0,-1.0] >= -49992
 R1735: - m[7,0,0] + 2 m[7,0,1] + 6649 m[7,0,2] - 6646 m[7,0,3]
   - 6647 m[7,1,1] - 2 m[7,1,2] + 3 m[7,1,3] - 50000 c[7,0,-1.0] >= -56647
 R1736: 3 m[7,0,0] + 3 m[7,0,1] + 7 m[7,0,2] + 7 m[7,0,3] + 4 m[7,1,1]
   - m[7,1,2] - m[7,1,3] - 50000 c[7,0,-1.0] >= -49995
 R1737: 4 m[7,0,0] - 6 m[7,0,1] + 15 m[7,0,2] + 2 m[7,0,3] - m[7,1,0]
   - 8 m[7,1,1] + 16 m[7,1,2] + 6 m[7,1,3] - 50000 c[7,0,-1.0] >= -49999
 R1738: 3 m[7,0,0] - 4 m[7,0,1] - 16 m[7,0,2] - 9 m[7,1,0] + 20 m[7,1,1]
   + 4 m[7,1,2] + 8 m[7,1,3] - 50000 c[7,0,-1.0] >= -50009
 R1739: c[7,1,0.0] + c[7,1,-3.0] + c[7,1,-2.0] + c[7,1,-1.41504]
   + c[7,1,-1.0] = 1
 R1740: - m[7,0,4] - m[7,0,5] - m[7,0,6] - m[7,0,7] - m[7,1,4] - m[7,1,5]
   - m[7,1,6] - m[7,1,7] - 50000 c[7,1,0.0] >= -50000
 R1741: c[7,1,-3.0] = 0
 R1742: - m[7,0,6] - m[7,0,7] - m[7,1,4] - m[7,1,5] - 50000 c[7,1,-2.0]
   >= -50003
 R1743: m[7,0,6] + 2 m[7,1,4] + 3 m[7,1,5] - 50000 c[7,1,-2.0] >= -49997
 R1744: 2 m[7,0,6] + 3 m[7,0,7] + 2 m[7,1,4] + m[7,1,5] - 50000 c[7,1,-2.0]
   >= -49996
 R1745: c[7,1,-1.41504] = 0
 R1746: - m[7,0,4] - 2 m[7,0,5] - 6649 m[7,0,6] + 6645 m[7,0,7]
   - 6645 m[7,1,4] - 4 m[7,1,5] - 2 m[7,1,6] - 3 m[7,1,7]
   - 50000 c[7,1,-1.0] >= -56656
 R1747: - 4 m[7,0,4] - 7 m[7,0,5] + 2 m[7,0,6] - m[7,0,7] - m[7,1,4]
   + 2 m[7,1,5] - 6 m[7,1,6] - 6 m[7,1,7] - 50000 c[7,1,-1.0] >= -50018
 R1748: 1898 m[7,0,4] + 2848 m[7,0,5] + 1901 m[7,0,6] - 6649 m[7,0,7]
   + 6647 m[7,1,4] - 5698 m[7,1,5] + 1899 m[7,1,6] + 2849 m[7,1,7]
   - 50000 c[7,1,-1.0] >= -50951
 R1749: - m[7,0,4] + 11 m[7,0,5] + 5 m[7,0,6] + 9 m[7,1,4] + 11 m[7,1,5]
   + 5 m[7,1,6] - 2 m[7,1,7] - 50000 c[7,1,-1.0] >= -49992
 R1750: - m[7,0,4] + 2 m[7,0,5] + 6649 m[7,0,6] - 6646 m[7,0,7]
   - 6647 m[7,1,5] - 2 m[7,1,6] + 3 m[7,1,7] - 50000 c[7,1,-1.0] >= -56647
 R1751: 3 m[7,0,4] + 3 m[7,0,5] + 7 m[7,0,6] + 7 m[7,0,7] + 4 m[7,1,5]
   - m[7,1,6] - m[7,1,7] - 50000 c[7,1,-1.0] >= -49995
 R1752: 4 m[7,0,4] - 6 m[7,0,5] + 15 m[7,0,6] + 2 m[7,0,7] - m[7,1,4]
   - 8 m[7,1,5] + 16 m[7,1,6] + 6 m[7,1,7] - 50000 c[7,1,-1.0] >= -49999
 R1753: 3 m[7,0,4] - 4 m[7,0,5] - 16 m[7,0,6] - 9 m[7,1,4] + 20 m[7,1,5]
   + 4 m[7,1,6] + 8 m[7,1,7] - 50000 c[7,1,-1.0] >= -50009
 R1754: c[7,2,0.0] + c[7,2,-3.0] + c[7,2,-2.0] + c[7,2,-1.41504]
   + c[7,2,-1.0] = 1
 R1755: - m[7,0,8] - m[7,0,9] - m[7,0,10] - m[7,0,11] - m[7,1,8] - m[7,1,9]
   - m[7,1,10] - m[7,1,11] - 50000 c[7,2,0.0] >= -50000
 R1756: c[7,2,-3.0] = 0
 R1757: - m[7,0,10] - m[7,0,11] - m[7,1,8] - m[7,1,9] - 50000 c[7,2,-2.0]
   >= -50003
 R1758: m[7,0,10] + 2 m[7,1,8] + 3 m[7,1,9] - 50000 c[7,2,-2.0] >= -49997
 R1759: 2 m[7,0,10] + 3 m[7,0,11] + 2 m[7,1,8] + m[7,1,9]
   - 50000 c[7,2,-2.0] >= -49996
 R1760: c[7,2,-1.41504] = 0
 R1761: - m[7,0,8] - 2 m[7,0,9] - 6649 m[7,0,10] + 6645 m[7,0,11]
   - 6645 m[7,1,8] - 4 m[7,1,9] - 2 m[7,1,10] - 3 m[7,1,11]
   - 50000 c[7,2,-1.0] >= -56656
 R1762: - 4 m[7,0,8] - 7 m[7,0,9] + 2 m[7,0,10] - m[7,0,11] - m[7,1,8]
   + 2 m[7,1,9] - 6 m[7,1,10] - 6 m[7,1,11] - 50000 c[7,2,-1.0] >= -50018
 R1763: 1898 m[7,0,8] + 2848 m[7,0,9] + 1901 m[7,0,10] - 6649 m[7,0,11]
   + 6647 m[7,1,8] - 5698 m[7,1,9] + 1899 m[7,1,10] + 2849 m[7,1,11]
   - 50000 c[7,2,-1.0] >= -50951
 R1764: - m[7,0,8] + 11 m[7,0,9] + 5 m[7,0,10] + 9 m[7,1,8] + 11 m[7,1,9]
   + 5 m[7,1,10] - 2 m[7,1,11] - 50000 c[7,2,-1.0] >= -49992
 R1765: - m[7,0,8] + 2 m[7,0,9] + 6649 m[7,0,10] - 6646 m[7,0,11]
   - 6647 m[7,1,9] - 2 m[7,1,10] + 3 m[7,1,11] - 50000 c[7,2,-1.0]
   >= -56647
 R1766: 3 m[7,0,8] + 3 m[7,0,9] + 7 m[7,0,10] + 7 m[7,0,11] + 4 m[7,1,9]
   - m[7,1,10] - m[7,1,11] - 50000 c[7,2,-1.0] >= -49995
 R1767: 4 m[7,0,8] - 6 m[7,0,9] + 15 m[7,0,10] + 2 m[7,0,11] - m[7,1,8]
   - 8 m[7,1,9] + 16 m[7,1,10] + 6 m[7,1,11] - 50000 c[7,2,-1.0] >= -49999
 R1768: 3 m[7,0,8] - 4 m[7,0,9] - 16 m[7,0,10] - 9 m[7,1,8] + 20 m[7,1,9]
   + 4 m[7,1,10] + 8 m[7,1,11] - 50000 c[7,2,-1.0] >= -50009
 R1769: c[7,3,0.0] + c[7,3,-3.0] + c[7,3,-2.0] + c[7,3,-1.41504]
   + c[7,3,-1.0] = 1
 R1770: - m[7,0,12] - m[7,0,13] - m[7,0,14] - m[7,0,15] - m[7,1,12]
   - m[7,1,13] - m[7,1,14] - m[7,1,15] - 50000 c[7,3,0.0] >= -50000
 R1771: c[7,3,-3.0] = 0
 R1772: - m[7,0,14] - m[7,0,15] - m[7,1,12] - m[7,1,13] - 50000 c[7,3,-2.0]
   >= -50003
 R1773: m[7,0,14] + 2 m[7,1,12] + 3 m[7,1,13] - 50000 c[7,3,-2.0]
   >= -49997
 R1774: 2 m[7,0,14] + 3 m[7,0,15] + 2 m[7,1,12] + m[7,1,13]
   - 50000 c[7,3,-2.0] >= -49996
 R1775: c[7,3,-1.41504] = 0
 R1776: - m[7,0,12] - 2 m[7,0,13] - 6649 m[7,0,14] + 6645 m[7,0,15]
   - 6645 m[7,1,12] - 4 m[7,1,13] - 2 m[7,1,14] - 3 m[7,1,15]
   - 50000 c[7,3,-1.0] >= -56656
 R1777: - 4 m[7,0,12] - 7 m[7,0,13] + 2 m[7,0,14] - m[7,0,15] - m[7,1,12]
   + 2 m[7,1,13] - 6 m[7,1,14] - 6 m[7,1,15] - 50000 c[7,3,-1.0] >= -50018
 R1778: 1898 m[7,0,12] + 2848 m[7,0,13] + 1901 m[7,0,14] - 6649 m[7,0,15]
   + 6647 m[7,1,12] - 5698 m[7,1,13] + 1899 m[7,1,14] + 2849 m[7,1,15]
   - 50000 c[7,3,-1.0] >= -50951
 R1779: - m[7,0,12] + 11 m[7,0,13] + 5 m[7,0,14] + 9 m[7,1,12]
   + 11 m[7,1,13] + 5 m[7,1,14] - 2 m[7,1,15] - 50000 c[7,3,-1.0]
   >= -49992
 R1780: - m[7,0,12] + 2 m[7,0,13] + 6649 m[7,0,14] - 6646 m[7,0,15]
   - 6647 m[7,1,13] - 2 m[7,1,14] + 3 m[7,1,15] - 50000 c[7,3,-1.0]
   >= -56647
 R1781: 3 m[7,0,12] + 3 m[7,0,13] + 7 m[7,0,14] + 7 m[7,0,15] + 4 m[7,1,13]
   - m[7,1,14] - m[7,1,15] - 50000 c[7,3,-1.0] >= -49995
 R1782: 4 m[7,0,12] - 6 m[7,0,13] + 15 m[7,0,14] + 2 m[7,0,15] - m[7,1,12]
   - 8 m[7,1,13] + 16 m[7,1,14] + 6 m[7,1,15] - 50000 c[7,3,-1.0]
   >= -49999
 R1783: 3 m[7,0,12] - 4 m[7,0,13] - 16 m[7,0,14] - 9 m[7,1,12]
   + 20 m[7,1,13] + 4 m[7,1,14] + 8 m[7,1,15] - 50000 c[7,3,-1.0]
   >= -50009
 R1784: c[7,4,0.0] + c[7,4,-3.0] + c[7,4,-2.0] + c[7,4,-1.41504]
   + c[7,4,-1.0] = 1
 R1785: - m[7,0,16] - m[7,0,17] - m[7,0,18] - m[7,0,19] - m[7,1,16]
   - m[7,1,17] - m[7,1,18] - m[7,1,19] - 50000 c[7,4,0.0] >= -50000
 R1786: c[7,4,-3.0] = 0
 R1787: - m[7,0,18] - m[7,0,19] - m[7,1,16] - m[7,1,17] - 50000 c[7,4,-2.0]
   >= -50003
 R1788: m[7,0,18] + 2 m[7,1,16] + 3 m[7,1,17] - 50000 c[7,4,-2.0]
   >= -49997
 R1789: 2 m[7,0,18] + 3 m[7,0,19] + 2 m[7,1,16] + m[7,1,17]
   - 50000 c[7,4,-2.0] >= -49996
 R1790: c[7,4,-1.41504] = 0
 R1791: - m[7,0,16] - 2 m[7,0,17] - 6649 m[7,0,18] + 6645 m[7,0,19]
   - 6645 m[7,1,16] - 4 m[7,1,17] - 2 m[7,1,18] - 3 m[7,1,19]
   - 50000 c[7,4,-1.0] >= -56656
 R1792: - 4 m[7,0,16] - 7 m[7,0,17] + 2 m[7,0,18] - m[7,0,19] - m[7,1,16]
   + 2 m[7,1,17] - 6 m[7,1,18] - 6 m[7,1,19] - 50000 c[7,4,-1.0] >= -50018
 R1793: 1898 m[7,0,16] + 2848 m[7,0,17] + 1901 m[7,0,18] - 6649 m[7,0,19]
   + 6647 m[7,1,16] - 5698 m[7,1,17] + 1899 m[7,1,18] + 2849 m[7,1,19]
   - 50000 c[7,4,-1.0] >= -50951
 R1794: - m[7,0,16] + 11 m[7,0,17] + 5 m[7,0,18] + 9 m[7,1,16]
   + 11 m[7,1,17] + 5 m[7,1,18] - 2 m[7,1,19] - 50000 c[7,4,-1.0]
   >= -49992
 R1795: - m[7,0,16] + 2 m[7,0,17] + 6649 m[7,0,18] - 6646 m[7,0,19]
   - 6647 m[7,1,17] - 2 m[7,1,18] + 3 m[7,1,19] - 50000 c[7,4,-1.0]
   >= -56647
 R1796: 3 m[7,0,16] + 3 m[7,0,17] + 7 m[7,0,18] + 7 m[7,0,19] + 4 m[7,1,17]
   - m[7,1,18] - m[7,1,19] - 50000 c[7,4,-1.0] >= -49995
 R1797: 4 m[7,0,16] - 6 m[7,0,17] + 15 m[7,0,18] + 2 m[7,0,19] - m[7,1,16]
   - 8 m[7,1,17] + 16 m[7,1,18] + 6 m[7,1,19] - 50000 c[7,4,-1.0]
   >= -49999
 R1798: 3 m[7,0,16] - 4 m[7,0,17] - 16 m[7,0,18] - 9 m[7,1,16]
   + 20 m[7,1,17] + 4 m[7,1,18] + 8 m[7,1,19] - 50000 c[7,4,-1.0]
   >= -50009
 R1799: c[7,5,0.0] + c[7,5,-3.0] + c[7,5,-2.0] + c[7,5,-1.41504]
   + c[7,5,-1.0] = 1
 R1800: - m[7,0,20] - m[7,0,21] - m[7,0,22] - m[7,0,23] - m[7,1,20]
   - m[7,1,21] - m[7,1,22] - m[7,1,23] - 50000 c[7,5,0.0] >= -50000
 R1801: c[7,5,-3.0] = 0
 R1802: - m[7,0,22] - m[7,0,23] - m[7,1,20] - m[7,1,21] - 50000 c[7,5,-2.0]
   >= -50003
 R1803: m[7,0,22] + 2 m[7,1,20] + 3 m[7,1,21] - 50000 c[7,5,-2.0]
   >= -49997
 R1804: 2 m[7,0,22] + 3 m[7,0,23] + 2 m[7,1,20] + m[7,1,21]
   - 50000 c[7,5,-2.0] >= -49996
 R1805: c[7,5,-1.41504] = 0
 R1806: - m[7,0,20] - 2 m[7,0,21] - 6649 m[7,0,22] + 6645 m[7,0,23]
   - 6645 m[7,1,20] - 4 m[7,1,21] - 2 m[7,1,22] - 3 m[7,1,23]
   - 50000 c[7,5,-1.0] >= -56656
 R1807: - 4 m[7,0,20] - 7 m[7,0,21] + 2 m[7,0,22] - m[7,0,23] - m[7,1,20]
   + 2 m[7,1,21] - 6 m[7,1,22] - 6 m[7,1,23] - 50000 c[7,5,-1.0] >= -50018
 R1808: 1898 m[7,0,20] + 2848 m[7,0,21] + 1901 m[7,0,22] - 6649 m[7,0,23]
   + 6647 m[7,1,20] - 5698 m[7,1,21] + 1899 m[7,1,22] + 2849 m[7,1,23]
   - 50000 c[7,5,-1.0] >= -50951
 R1809: - m[7,0,20] + 11 m[7,0,21] + 5 m[7,0,22] + 9 m[7,1,20]
   + 11 m[7,1,21] + 5 m[7,1,22] - 2 m[7,1,23] - 50000 c[7,5,-1.0]
   >= -49992
 R1810: - m[7,0,20] + 2 m[7,0,21] + 6649 m[7,0,22] - 6646 m[7,0,23]
   - 6647 m[7,1,21] - 2 m[7,1,22] + 3 m[7,1,23] - 50000 c[7,5,-1.0]
   >= -56647
 R1811: 3 m[7,0,20] + 3 m[7,0,21] + 7 m[7,0,22] + 7 m[7,0,23] + 4 m[7,1,21]
   - m[7,1,22] - m[7,1,23] - 50000 c[7,5,-1.0] >= -49995
 R1812: 4 m[7,0,20] - 6 m[7,0,21] + 15 m[7,0,22] + 2 m[7,0,23] - m[7,1,20]
   - 8 m[7,1,21] + 16 m[7,1,22] + 6 m[7,1,23] - 50000 c[7,5,-1.0]
   >= -49999
 R1813: 3 m[7,0,20] - 4 m[7,0,21] - 16 m[7,0,22] - 9 m[7,1,20]
   + 20 m[7,1,21] + 4 m[7,1,22] + 8 m[7,1,23] - 50000 c[7,5,-1.0]
   >= -50009
 R1814: c[7,6,0.0] + c[7,6,-3.0] + c[7,6,-2.0] + c[7,6,-1.41504]
   + c[7,6,-1.0] = 1
 R1815: - m[7,0,24] - m[7,0,25] - m[7,0,26] - m[7,0,27] - m[7,1,24]
   - m[7,1,25] - m[7,1,26] - m[7,1,27] - 50000 c[7,6,0.0] >= -50000
 R1816: c[7,6,-3.0] = 0
 R1817: - m[7,0,26] - m[7,0,27] - m[7,1,24] - m[7,1,25] - 50000 c[7,6,-2.0]
   >= -50003
 R1818: m[7,0,26] + 2 m[7,1,24] + 3 m[7,1,25] - 50000 c[7,6,-2.0]
   >= -49997
 R1819: 2 m[7,0,26] + 3 m[7,0,27] + 2 m[7,1,24] + m[7,1,25]
   - 50000 c[7,6,-2.0] >= -49996
 R1820: c[7,6,-1.41504] = 0
 R1821: - m[7,0,24] - 2 m[7,0,25] - 6649 m[7,0,26] + 6645 m[7,0,27]
   - 6645 m[7,1,24] - 4 m[7,1,25] - 2 m[7,1,26] - 3 m[7,1,27]
   - 50000 c[7,6,-1.0] >= -56656
 R1822: - 4 m[7,0,24] - 7 m[7,0,25] + 2 m[7,0,26] - m[7,0,27] - m[7,1,24]
   + 2 m[7,1,25] - 6 m[7,1,26] - 6 m[7,1,27] - 50000 c[7,6,-1.0] >= -50018
 R1823: 1898 m[7,0,24] + 2848 m[7,0,25] + 1901 m[7,0,26] - 6649 m[7,0,27]
   + 6647 m[7,1,24] - 5698 m[7,1,25] + 1899 m[7,1,26] + 2849 m[7,1,27]
   - 50000 c[7,6,-1.0] >= -50951
 R1824: - m[7,0,24] + 11 m[7,0,25] + 5 m[7,0,26] + 9 m[7,1,24]
   + 11 m[7,1,25] + 5 m[7,1,26] - 2 m[7,1,27] - 50000 c[7,6,-1.0]
   >= -49992
 R1825: - m[7,0,24] + 2 m[7,0,25] + 6649 m[7,0,26] - 6646 m[7,0,27]
   - 6647 m[7,1,25] - 2 m[7,1,26] + 3 m[7,1,27] - 50000 c[7,6,-1.0]
   >= -56647
 R1826: 3 m[7,0,24] + 3 m[7,0,25] + 7 m[7,0,26] + 7 m[7,0,27] + 4 m[7,1,25]
   - m[7,1,26] - m[7,1,27] - 50000 c[7,6,-1.0] >= -49995
 R1827: 4 m[7,0,24] - 6 m[7,0,25] + 15 m[7,0,26] + 2 m[7,0,27] - m[7,1,24]
   - 8 m[7,1,25] + 16 m[7,1,26] + 6 m[7,1,27] - 50000 c[7,6,-1.0]
   >= -49999
 R1828: 3 m[7,0,24] - 4 m[7,0,25] - 16 m[7,0,26] - 9 m[7,1,24]
   + 20 m[7,1,25] + 4 m[7,1,26] + 8 m[7,1,27] - 50000 c[7,6,-1.0]
   >= -50009
 R1829: c[7,7,0.0] + c[7,7,-3.0] + c[7,7,-2.0] + c[7,7,-1.41504]
   + c[7,7,-1.0] = 1
 R1830: - m[7,0,28] - m[7,0,29] - m[7,0,30] - m[7,0,31] - m[7,1,28]
   - m[7,1,29] - m[7,1,30] - m[7,1,31] - 50000 c[7,7,0.0] >= -50000
 R1831: c[7,7,-3.0] = 0
 R1832: - m[7,0,30] - m[7,0,31] - m[7,1,28] - m[7,1,29] - 50000 c[7,7,-2.0]
   >= -50003
 R1833: m[7,0,30] + 2 m[7,1,28] + 3 m[7,1,29] - 50000 c[7,7,-2.0]
   >= -49997
 R1834: 2 m[7,0,30] + 3 m[7,0,31] + 2 m[7,1,28] + m[7,1,29]
   - 50000 c[7,7,-2.0] >= -49996
 R1835: c[7,7,-1.41504] = 0
 R1836: - m[7,0,28] - 2 m[7,0,29] - 6649 m[7,0,30] + 6645 m[7,0,31]
   - 6645 m[7,1,28] - 4 m[7,1,29] - 2 m[7,1,30] - 3 m[7,1,31]
   - 50000 c[7,7,-1.0] >= -56656
 R1837: - 4 m[7,0,28] - 7 m[7,0,29] + 2 m[7,0,30] - m[7,0,31] - m[7,1,28]
   + 2 m[7,1,29] - 6 m[7,1,30] - 6 m[7,1,31] - 50000 c[7,7,-1.0] >= -50018
 R1838: 1898 m[7,0,28] + 2848 m[7,0,29] + 1901 m[7,0,30] - 6649 m[7,0,31]
   + 6647 m[7,1,28] - 5698 m[7,1,29] + 1899 m[7,1,30] + 2849 m[7,1,31]
   - 50000 c[7,7,-1.0] >= -50951
 R1839: - m[7,0,28] + 11 m[7,0,29] + 5 m[7,0,30] + 9 m[7,1,28]
   + 11 m[7,1,29] + 5 m[7,1,30] - 2 m[7,1,31] - 50000 c[7,7,-1.0]
   >= -49992
 R1840: - m[7,0,28] + 2 m[7,0,29] + 6649 m[7,0,30] - 6646 m[7,0,31]
   - 6647 m[7,1,29] - 2 m[7,1,30] + 3 m[7,1,31] - 50000 c[7,7,-1.0]
   >= -56647
 R1841: 3 m[7,0,28] + 3 m[7,0,29] + 7 m[7,0,30] + 7 m[7,0,31] + 4 m[7,1,29]
   - m[7,1,30] - m[7,1,31] - 50000 c[7,7,-1.0] >= -49995
 R1842: 4 m[7,0,28] - 6 m[7,0,29] + 15 m[7,0,30] + 2 m[7,0,31] - m[7,1,28]
   - 8 m[7,1,29] + 16 m[7,1,30] + 6 m[7,1,31] - 50000 c[7,7,-1.0]
   >= -49999
 R1843: 3 m[7,0,28] - 4 m[7,0,29] - 16 m[7,0,30] - 9 m[7,1,28]
   + 20 m[7,1,29] + 4 m[7,1,30] + 8 m[7,1,31] - 50000 c[7,7,-1.0]
   >= -50009
 R1844: c[7,8,0.0] + c[7,8,-3.0] + c[7,8,-2.0] + c[7,8,-1.41504]
   + c[7,8,-1.0] = 1
 R1845: c[7,8,0.0] = 0
 R1846: c[7,8,-3.0] = 0
 R1847: m[7,0,33] + 3 m[7,0,34] + 2 m[7,1,33] - m[7,1,34] - 2 m[7,1,35]
   - 50000 c[7,8,-2.0] >= -50000
 R1848: - m[7,0,33] - 3 m[7,0,34] + 2 m[7,1,33] - m[7,1,34] + 2 m[7,1,35]
   - 50000 c[7,8,-2.0] >= -50002
 R1849: m[7,0,33] - 3 m[7,0,34] - 2 m[7,1,33] + m[7,1,34] - 2 m[7,1,35]
   - 50000 c[7,8,-2.0] >= -50004
 R1850: - m[7,0,33] + 3 m[7,0,34] - 2 m[7,1,33] + m[7,1,34] + 2 m[7,1,35]
   - 50000 c[7,8,-2.0] >= -50000
 R1851: c[7,8,-1.41504] = 0
 R1852: c[7,8,-1.0] = 0
 R1853: c[7,9,0.0] + c[7,9,-3.0] + c[7,9,-2.0] + c[7,9,-1.41504]
   + c[7,9,-1.0] = 1
 R1854: - m[7,0,36] - m[7,0,37] - m[7,0,38] - m[7,0,39] - m[7,1,36]
   - m[7,1,37] - m[7,1,38] - m[7,1,39] - 50000 c[7,9,0.0] >= -50000
 R1855: c[7,9,-3.0] = 0
 R1856: - m[7,0,38] - m[7,0,39] - m[7,1,36] - m[7,1,37] - 50000 c[7,9,-2.0]
   >= -50003
 R1857: m[7,0,38] + 2 m[7,1,36] + 3 m[7,1,37] - 50000 c[7,9,-2.0]
   >= -49997
 R1858: 2 m[7,0,38] + 3 m[7,0,39] + 2 m[7,1,36] + m[7,1,37]
   - 50000 c[7,9,-2.0] >= -49996
 R1859: c[7,9,-1.41504] = 0
 R1860: - m[7,0,36] - 2 m[7,0,37] - 6649 m[7,0,38] + 6645 m[7,0,39]
   - 6645 m[7,1,36] - 4 m[7,1,37] - 2 m[7,1,38] - 3 m[7,1,39]
   - 50000 c[7,9,-1.0] >= -56656
 R1861: - 4 m[7,0,36] - 7 m[7,0,37] + 2 m[7,0,38] - m[7,0,39] - m[7,1,36]
   + 2 m[7,1,37] - 6 m[7,1,38] - 6 m[7,1,39] - 50000 c[7,9,-1.0] >= -50018
 R1862: 1898 m[7,0,36] + 2848 m[7,0,37] + 1901 m[7,0,38] - 6649 m[7,0,39]
   + 6647 m[7,1,36] - 5698 m[7,1,37] + 1899 m[7,1,38] + 2849 m[7,1,39]
   - 50000 c[7,9,-1.0] >= -50951
 R1863: - m[7,0,36] + 11 m[7,0,37] + 5 m[7,0,38] + 9 m[7,1,36]
   + 11 m[7,1,37] + 5 m[7,1,38] - 2 m[7,1,39] - 50000 c[7,9,-1.0]
   >= -49992
 R1864: - m[7,0,36] + 2 m[7,0,37] + 6649 m[7,0,38] - 6646 m[7,0,39]
   - 6647 m[7,1,37] - 2 m[7,1,38] + 3 m[7,1,39] - 50000 c[7,9,-1.0]
   >= -56647
 R1865: 3 m[7,0,36] + 3 m[7,0,37] + 7 m[7,0,38] + 7 m[7,0,39] + 4 m[7,1,37]
   - m[7,1,38] - m[7,1,39] - 50000 c[7,9,-1.0] >= -49995
 R1866: 4 m[7,0,36] - 6 m[7,0,37] + 15 m[7,0,38] + 2 m[7,0,39] - m[7,1,36]
   - 8 m[7,1,37] + 16 m[7,1,38] + 6 m[7,1,39] - 50000 c[7,9,-1.0]
   >= -49999
 R1867: 3 m[7,0,36] - 4 m[7,0,37] - 16 m[7,0,38] - 9 m[7,1,36]
   + 20 m[7,1,37] + 4 m[7,1,38] + 8 m[7,1,39] - 50000 c[7,9,-1.0]
   >= -50009
 R1868: c[7,10,0.0] + c[7,10,-3.0] + c[7,10,-2.0] + c[7,10,-1.41504]
   + c[7,10,-1.0] = 1
 R1869: c[7,10,0.0] = 0
 R1870: c[7,10,-3.0] = 0
 R1871: m[7,0,41] + 3 m[7,0,42] + 2 m[7,1,41] - m[7,1,42] - 2 m[7,1,43]
   - 50000 c[7,10,-2.0] >= -50000
 R1872: - m[7,0,41] - 3 m[7,0,42] + 2 m[7,1,41] - m[7,1,42] + 2 m[7,1,43]
   - 50000 c[7,10,-2.0] >= -50002
 R1873: m[7,0,41] - 3 m[7,0,42] - 2 m[7,1,41] + m[7,1,42] - 2 m[7,1,43]
   - 50000 c[7,10,-2.0] >= -50004
 R1874: - m[7,0,41] + 3 m[7,0,42] - 2 m[7,1,41] + m[7,1,42] + 2 m[7,1,43]
   - 50000 c[7,10,-2.0] >= -50000
 R1875: c[7,10,-1.41504] = 0
 R1876: c[7,10,-1.0] = 0
 R1877: c[7,11,0.0] + c[7,11,-3.0] + c[7,11,-2.0] + c[7,11,-1.41504]
   + c[7,11,-1.0] = 1
 R1878: - m[7,0,44] - m[7,0,45] - m[7,0,46] - m[7,0,47] - m[7,1,44]
   - m[7,1,45] - m[7,1,46] - m[7,1,47] - 50000 c[7,11,0.0] >= -50000
 R1879: c[7,11,-3.0] = 0
 R1880: - m[7,0,46] - m[7,0,47] - m[7,1,44] - m[7,1,45]
   - 50000 c[7,11,-2.0] >= -50003
 R1881: m[7,0,46] + 2 m[7,1,44] + 3 m[7,1,45] - 50000 c[7,11,-2.0]
   >= -49997
 R1882: 2 m[7,0,46] + 3 m[7,0,47] + 2 m[7,1,44] + m[7,1,45]
   - 50000 c[7,11,-2.0] >= -49996
 R1883: c[7,11,-1.41504] = 0
 R1884: - m[7,0,44] - 2 m[7,0,45] - 6649 m[7,0,46] + 6645 m[7,0,47]
   - 6645 m[7,1,44] - 4 m[7,1,45] - 2 m[7,1,46] - 3 m[7,1,47]
   - 50000 c[7,11,-1.0] >= -56656
 R1885: - 4 m[7,0,44] - 7 m[7,0,45] + 2 m[7,0,46] - m[7,0,47] - m[7,1,44]
   + 2 m[7,1,45] - 6 m[7,1,46] - 6 m[7,1,47] - 50000 c[7,11,-1.0]
   >= -50018
 R1886: 1898 m[7,0,44] + 2848 m[7,0,45] + 1901 m[7,0,46] - 6649 m[7,0,47]
   + 6647 m[7,1,44] - 5698 m[7,1,45] + 1899 m[7,1,46] + 2849 m[7,1,47]
   - 50000 c[7,11,-1.0] >= -50951
 R1887: - m[7,0,44] + 11 m[7,0,45] + 5 m[7,0,46] + 9 m[7,1,44]
   + 11 m[7,1,45] + 5 m[7,1,46] - 2 m[7,1,47] - 50000 c[7,11,-1.0]
   >= -49992
 R1888: - m[7,0,44] + 2 m[7,0,45] + 6649 m[7,0,46] - 6646 m[7,0,47]
   - 6647 m[7,1,45] - 2 m[7,1,46] + 3 m[7,1,47] - 50000 c[7,11,-1.0]
   >= -56647
 R1889: 3 m[7,0,44] + 3 m[7,0,45] + 7 m[7,0,46] + 7 m[7,0,47] + 4 m[7,1,45]
   - m[7,1,46] - m[7,1,47] - 50000 c[7,11,-1.0] >= -49995
 R1890: 4 m[7,0,44] - 6 m[7,0,45] + 15 m[7,0,46] + 2 m[7,0,47] - m[7,1,44]
   - 8 m[7,1,45] + 16 m[7,1,46] + 6 m[7,1,47] - 50000 c[7,11,-1.0]
   >= -49999
 R1891: 3 m[7,0,44] - 4 m[7,0,45] - 16 m[7,0,46] - 9 m[7,1,44]
   + 20 m[7,1,45] + 4 m[7,1,46] + 8 m[7,1,47] - 50000 c[7,11,-1.0]
   >= -50009
 R1892: c[7,12,0.0] + c[7,12,-3.0] + c[7,12,-2.0] + c[7,12,-1.41504]
   + c[7,12,-1.0] = 1
 R1893: - m[7,0,48] - m[7,0,49] - m[7,0,50] - m[7,0,51] - m[7,1,48]
   - m[7,1,49] - m[7,1,50] - m[7,1,51] - 50000 c[7,12,0.0] >= -50000
 R1894: c[7,12,-3.0] = 0
 R1895: - m[7,0,50] - m[7,0,51] - m[7,1,48] - m[7,1,49]
   - 50000 c[7,12,-2.0] >= -50003
 R1896: m[7,0,50] + 2 m[7,1,48] + 3 m[7,1,49] - 50000 c[7,12,-2.0]
   >= -49997
 R1897: 2 m[7,0,50] + 3 m[7,0,51] + 2 m[7,1,48] + m[7,1,49]
   - 50000 c[7,12,-2.0] >= -49996
 R1898: c[7,12,-1.41504] = 0
 R1899: - m[7,0,48] - 2 m[7,0,49] - 6649 m[7,0,50] + 6645 m[7,0,51]
   - 6645 m[7,1,48] - 4 m[7,1,49] - 2 m[7,1,50] - 3 m[7,1,51]
   - 50000 c[7,12,-1.0] >= -56656
 R1900: - 4 m[7,0,48] - 7 m[7,0,49] + 2 m[7,0,50] - m[7,0,51] - m[7,1,48]
   + 2 m[7,1,49] - 6 m[7,1,50] - 6 m[7,1,51] - 50000 c[7,12,-1.0]
   >= -50018
 R1901: 1898 m[7,0,48] + 2848 m[7,0,49] + 1901 m[7,0,50] - 6649 m[7,0,51]
   + 6647 m[7,1,48] - 5698 m[7,1,49] + 1899 m[7,1,50] + 2849 m[7,1,51]
   - 50000 c[7,12,-1.0] >= -50951
 R1902: - m[7,0,48] + 11 m[7,0,49] + 5 m[7,0,50] + 9 m[7,1,48]
   + 11 m[7,1,49] + 5 m[7,1,50] - 2 m[7,1,51] - 50000 c[7,12,-1.0]
   >= -49992
 R1903: - m[7,0,48] + 2 m[7,0,49] + 6649 m[7,0,50] - 6646 m[7,0,51]
   - 6647 m[7,1,49] - 2 m[7,1,50] + 3 m[7,1,51] - 50000 c[7,12,-1.0]
   >= -56647
 R1904: 3 m[7,0,48] + 3 m[7,0,49] + 7 m[7,0,50] + 7 m[7,0,51] + 4 m[7,1,49]
   - m[7,1,50] - m[7,1,51] - 50000 c[7,12,-1.0] >= -49995
 R1905: 4 m[7,0,48] - 6 m[7,0,49] + 15 m[7,0,50] + 2 m[7,0,51] - m[7,1,48]
   - 8 m[7,1,49] + 16 m[7,1,50] + 6 m[7,1,51] - 50000 c[7,12,-1.0]
   >= -49999
 R1906: 3 m[7,0,48] - 4 m[7,0,49] - 16 m[7,0,50] - 9 m[7,1,48]
   + 20 m[7,1,49] + 4 m[7,1,50] + 8 m[7,1,51] - 50000 c[7,12,-1.0]
   >= -50009
 R1907: c[7,13,0.0] + c[7,13,-3.0] + c[7,13,-2.0] + c[7,13,-1.41504]
   + c[7,13,-1.0] = 1
 R1908: - m[7,0,52] - m[7,0,53] - m[7,0,54] - m[7,0,55] - m[7,1,52]
   - m[7,1,53] - m[7,1,54] - m[7,1,55] - 50000 c[7,13,0.0] >= -50000
 R1909: c[7,13,-3.0] = 0
 R1910: - m[7,0,54] - m[7,0,55] - m[7,1,52] - m[7,1,53]
   - 50000 c[7,13,-2.0] >= -50003
 R1911: m[7,0,54] + 2 m[7,1,52] + 3 m[7,1,53] - 50000 c[7,13,-2.0]
   >= -49997
 R1912: 2 m[7,0,54] + 3 m[7,0,55] + 2 m[7,1,52] + m[7,1,53]
   - 50000 c[7,13,-2.0] >= -49996
 R1913: c[7,13,-1.41504] = 0
 R1914: - m[7,0,52] - 2 m[7,0,53] - 6649 m[7,0,54] + 6645 m[7,0,55]
   - 6645 m[7,1,52] - 4 m[7,1,53] - 2 m[7,1,54] - 3 m[7,1,55]
   - 50000 c[7,13,-1.0] >= -56656
 R1915: - 4 m[7,0,52] - 7 m[7,0,53] + 2 m[7,0,54] - m[7,0,55] - m[7,1,52]
   + 2 m[7,1,53] - 6 m[7,1,54] - 6 m[7,1,55] - 50000 c[7,13,-1.0]
   >= -50018
 R1916: 1898 m[7,0,52] + 2848 m[7,0,53] + 1901 m[7,0,54] - 6649 m[7,0,55]
   + 6647 m[7,1,52] - 5698 m[7,1,53] + 1899 m[7,1,54] + 2849 m[7,1,55]
   - 50000 c[7,13,-1.0] >= -50951
 R1917: - m[7,0,52] + 11 m[7,0,53] + 5 m[7,0,54] + 9 m[7,1,52]
   + 11 m[7,1,53] + 5 m[7,1,54] - 2 m[7,1,55] - 50000 c[7,13,-1.0]
   >= -49992
 R1918: - m[7,0,52] + 2 m[7,0,53] + 6649 m[7,0,54] - 6646 m[7,0,55]
   - 6647 m[7,1,53] - 2 m[7,1,54] + 3 m[7,1,55] - 50000 c[7,13,-1.0]
   >= -56647
 R1919: 3 m[7,0,52] + 3 m[7,0,53] + 7 m[7,0,54] + 7 m[7,0,55] + 4 m[7,1,53]
   - m[7,1,54] - m[7,1,55] - 50000 c[7,13,-1.0] >= -49995
 R1920: 4 m[7,0,52] - 6 m[7,0,53] + 15 m[7,0,54] + 2 m[7,0,55] - m[7,1,52]
   - 8 m[7,1,53] + 16 m[7,1,54] + 6 m[7,1,55] - 50000 c[7,13,-1.0]
   >= -49999
 R1921: 3 m[7,0,52] - 4 m[7,0,53] - 16 m[7,0,54] - 9 m[7,1,52]
   + 20 m[7,1,53] + 4 m[7,1,54] + 8 m[7,1,55] - 50000 c[7,13,-1.0]
   >= -50009
 R1922: c[7,14,0.0] + c[7,14,-3.0] + c[7,14,-2.0] + c[7,14,-1.41504]
   + c[7,14,-1.0] = 1
 R1923: - m[7,0,56] - m[7,0,57] - m[7,0,58] - m[7,0,59] - m[7,1,56]
   - m[7,1,57] - m[7,1,58] - m[7,1,59] - 50000 c[7,14,0.0] >= -50000
 R1924: c[7,14,-3.0] = 0
 R1925: - m[7,0,58] - m[7,0,59] - m[7,1,56] - m[7,1,57]
   - 50000 c[7,14,-2.0] >= -50003
 R1926: m[7,0,58] + 2 m[7,1,56] + 3 m[7,1,57] - 50000 c[7,14,-2.0]
   >= -49997
 R1927: 2 m[7,0,58] + 3 m[7,0,59] + 2 m[7,1,56] + m[7,1,57]
   - 50000 c[7,14,-2.0] >= -49996
 R1928: c[7,14,-1.41504] = 0
 R1929: - m[7,0,56] - 2 m[7,0,57] - 6649 m[7,0,58] + 6645 m[7,0,59]
   - 6645 m[7,1,56] - 4 m[7,1,57] - 2 m[7,1,58] - 3 m[7,1,59]
   - 50000 c[7,14,-1.0] >= -56656
 R1930: - 4 m[7,0,56] - 7 m[7,0,57] + 2 m[7,0,58] - m[7,0,59] - m[7,1,56]
   + 2 m[7,1,57] - 6 m[7,1,58] - 6 m[7,1,59] - 50000 c[7,14,-1.0]
   >= -50018
 R1931: 1898 m[7,0,56] + 2848 m[7,0,57] + 1901 m[7,0,58] - 6649 m[7,0,59]
   + 6647 m[7,1,56] - 5698 m[7,1,57] + 1899 m[7,1,58] + 2849 m[7,1,59]
   - 50000 c[7,14,-1.0] >= -50951
 R1932: - m[7,0,56] + 11 m[7,0,57] + 5 m[7,0,58] + 9 m[7,1,56]
   + 11 m[7,1,57] + 5 m[7,1,58] - 2 m[7,1,59] - 50000 c[7,14,-1.0]
   >= -49992
 R1933: - m[7,0,56] + 2 m[7,0,57] + 6649 m[7,0,58] - 6646 m[7,0,59]
   - 6647 m[7,1,57] - 2 m[7,1,58] + 3 m[7,1,59] - 50000 c[7,14,-1.0]
   >= -56647
 R1934: 3 m[7,0,56] + 3 m[7,0,57] + 7 m[7,0,58] + 7 m[7,0,59] + 4 m[7,1,57]
   - m[7,1,58] - m[7,1,59] - 50000 c[7,14,-1.0] >= -49995
 R1935: 4 m[7,0,56] - 6 m[7,0,57] + 15 m[7,0,58] + 2 m[7,0,59] - m[7,1,56]
   - 8 m[7,1,57] + 16 m[7,1,58] + 6 m[7,1,59] - 50000 c[7,14,-1.0]
   >= -49999
 R1936: 3 m[7,0,56] - 4 m[7,0,57] - 16 m[7,0,58] - 9 m[7,1,56]
   + 20 m[7,1,57] + 4 m[7,1,58] + 8 m[7,1,59] - 50000 c[7,14,-1.0]
   >= -50009
 R1937: c[7,15,0.0] + c[7,15,-3.0] + c[7,15,-2.0] + c[7,15,-1.41504]
   + c[7,15,-1.0] = 1
 R1938: - m[7,0,60] - m[7,0,61] - m[7,0,62] - m[7,0,63] - m[7,1,60]
   - m[7,1,61] - m[7,1,62] - m[7,1,63] - 50000 c[7,15,0.0] >= -50000
 R1939: c[7,15,-3.0] = 0
 R1940: - m[7,0,62] - m[7,0,63] - m[7,1,60] - m[7,1,61]
   - 50000 c[7,15,-2.0] >= -50003
 R1941: m[7,0,62] + 2 m[7,1,60] + 3 m[7,1,61] - 50000 c[7,15,-2.0]
   >= -49997
 R1942: 2 m[7,0,62] + 3 m[7,0,63] + 2 m[7,1,60] + m[7,1,61]
   - 50000 c[7,15,-2.0] >= -49996
 R1943: c[7,15,-1.41504] = 0
 R1944: - m[7,0,60] - 2 m[7,0,61] - 6649 m[7,0,62] + 6645 m[7,0,63]
   - 6645 m[7,1,60] - 4 m[7,1,61] - 2 m[7,1,62] - 3 m[7,1,63]
   - 50000 c[7,15,-1.0] >= -56656
 R1945: - 4 m[7,0,60] - 7 m[7,0,61] + 2 m[7,0,62] - m[7,0,63] - m[7,1,60]
   + 2 m[7,1,61] - 6 m[7,1,62] - 6 m[7,1,63] - 50000 c[7,15,-1.0]
   >= -50018
 R1946: 1898 m[7,0,60] + 2848 m[7,0,61] + 1901 m[7,0,62] - 6649 m[7,0,63]
   + 6647 m[7,1,60] - 5698 m[7,1,61] + 1899 m[7,1,62] + 2849 m[7,1,63]
   - 50000 c[7,15,-1.0] >= -50951
 R1947: - m[7,0,60] + 11 m[7,0,61] + 5 m[7,0,62] + 9 m[7,1,60]
   + 11 m[7,1,61] + 5 m[7,1,62] - 2 m[7,1,63] - 50000 c[7,15,-1.0]
   >= -49992
 R1948: - m[7,0,60] + 2 m[7,0,61] + 6649 m[7,0,62] - 6646 m[7,0,63]
   - 6647 m[7,1,61] - 2 m[7,1,62] + 3 m[7,1,63] - 50000 c[7,15,-1.0]
   >= -56647
 R1949: 3 m[7,0,60] + 3 m[7,0,61] + 7 m[7,0,62] + 7 m[7,0,63] + 4 m[7,1,61]
   - m[7,1,62] - m[7,1,63] - 50000 c[7,15,-1.0] >= -49995
 R1950: 4 m[7,0,60] - 6 m[7,0,61] + 15 m[7,0,62] + 2 m[7,0,63] - m[7,1,60]
   - 8 m[7,1,61] + 16 m[7,1,62] + 6 m[7,1,63] - 50000 c[7,15,-1.0]
   >= -49999
 R1951: 3 m[7,0,60] - 4 m[7,0,61] - 16 m[7,0,62] - 9 m[7,1,60]
   + 20 m[7,1,61] + 4 m[7,1,62] + 8 m[7,1,63] - 50000 c[7,15,-1.0]
   >= -50009
 R1952: c[8,0,0.0] + c[8,0,-3.0] + c[8,0,-2.0] + c[8,0,-1.41504]
   + c[8,0,-1.0] = 1
 R1953: - m[8,0,0] - m[8,0,1] - m[8,0,2] - m[8,0,3] - m[8,1,0] - m[8,1,1]
   - m[8,1,2] - m[8,1,3] - 50000 c[8,0,0.0] >= -50000
 R1954: c[8,0,-3.0] = 0
 R1955: - m[8,0,2] - m[8,0,3] - m[8,1,0] - m[8,1,1] - 50000 c[8,0,-2.0]
   >= -50003
 R1956: m[8,0,2] + 2 m[8,1,0] + 3 m[8,1,1] - 50000 c[8,0,-2.0] >= -49997
 R1957: 2 m[8,0,2] + 3 m[8,0,3] + 2 m[8,1,0] + m[8,1,1] - 50000 c[8,0,-2.0]
   >= -49996
 R1958: c[8,0,-1.41504] = 0
 R1959: - m[8,0,0] - 2 m[8,0,1] - 6649 m[8,0,2] + 6645 m[8,0,3]
   - 6645 m[8,1,0] - 4 m[8,1,1] - 2 m[8,1,2] - 3 m[8,1,3]
   - 50000 c[8,0,-1.0] >= -56656
 R1960: - 4 m[8,0,0] - 7 m[8,0,1] + 2 m[8,0,2] - m[8,0,3] - m[8,1,0]
   + 2 m[8,1,1] - 6 m[8,1,2] - 6 m[8,1,3] - 50000 c[8,0,-1.0] >= -50018
 R1961: 1898 m[8,0,0] + 2848 m[8,0,1] + 1901 m[8,0,2] - 6649 m[8,0,3]
   + 6647 m[8,1,0] - 5698 m[8,1,1] + 1899 m[8,1,2] + 2849 m[8,1,3]
   - 50000 c[8,0,-1.0] >= -50951
 R1962: - m[8,0,0] + 11 m[8,0,1] + 5 m[8,0,2] + 9 m[8,1,0] + 11 m[8,1,1]
   + 5 m[8,1,2] - 2 m[8,1,3] - 50000 c[8,0,-1.0] >= -49992
 R1963: - m[8,0,0] + 2 m[8,0,1] + 6649 m[8,0,2] - 6646 m[8,0,3]
   - 6647 m[8,1,1] - 2 m[8,1,2] + 3 m[8,1,3] - 50000 c[8,0,-1.0] >= -56647
 R1964: 3 m[8,0,0] + 3 m[8,0,1] + 7 m[8,0,2] + 7 m[8,0,3] + 4 m[8,1,1]
   - m[8,1,2] - m[8,1,3] - 50000 c[8,0,-1.0] >= -49995
 R1965: 4 m[8,0,0] - 6 m[8,0,1] + 15 m[8,0,2] + 2 m[8,0,3] - m[8,1,0]
   - 8 m[8,1,1] + 16 m[8,1,2] + 6 m[8,1,3] - 50000 c[8,0,-1.0] >= -49999
 R1966: 3 m[8,0,0] - 4 m[8,0,1] - 16 m[8,0,2] - 9 m[8,1,0] + 20 m[8,1,1]
   + 4 m[8,1,2] + 8 m[8,1,3] - 50000 c[8,0,-1.0] >= -50009
 R1967: c[8,1,0.0] + c[8,1,-3.0] + c[8,1,-2.0] + c[8,1,-1.41504]
   + c[8,1,-1.0] = 1
 R1968: - m[8,0,4] - m[8,0,5] - m[8,0,6] - m[8,0,7] - m[8,1,4] - m[8,1,5]
   - m[8,1,6] - m[8,1,7] - 50000 c[8,1,0.0] >= -50000
 R1969: c[8,1,-3.0] = 0
 R1970: - m[8,0,6] - m[8,0,7] - m[8,1,4] - m[8,1,5] - 50000 c[8,1,-2.0]
   >= -50003
 R1971: m[8,0,6] + 2 m[8,1,4] + 3 m[8,1,5] - 50000 c[8,1,-2.0] >= -49997
 R1972: 2 m[8,0,6] + 3 m[8,0,7] + 2 m[8,1,4] + m[8,1,5] - 50000 c[8,1,-2.0]
   >= -49996
 R1973: c[8,1,-1.41504] = 0
 R1974: - m[8,0,4] - 2 m[8,0,5] - 6649 m[8,0,6] + 6645 m[8,0,7]
   - 6645 m[8,1,4] - 4 m[8,1,5] - 2 m[8,1,6] - 3 m[8,1,7]
   - 50000 c[8,1,-1.0] >= -56656
 R1975: - 4 m[8,0,4] - 7 m[8,0,5] + 2 m[8,0,6] - m[8,0,7] - m[8,1,4]
   + 2 m[8,1,5] - 6 m[8,1,6] - 6 m[8,1,7] - 50000 c[8,1,-1.0] >= -50018
 R1976: 1898 m[8,0,4] + 2848 m[8,0,5] + 1901 m[8,0,6] - 6649 m[8,0,7]
   + 6647 m[8,1,4] - 5698 m[8,1,5] + 1899 m[8,1,6] + 2849 m[8,1,7]
   - 50000 c[8,1,-1.0] >= -50951
 R1977: - m[8,0,4] + 11 m[8,0,5] + 5 m[8,0,6] + 9 m[8,1,4] + 11 m[8,1,5]
   + 5 m[8,1,6] - 2 m[8,1,7] - 50000 c[8,1,-1.0] >= -49992
 R1978: - m[8,0,4] + 2 m[8,0,5] + 6649 m[8,0,6] - 6646 m[8,0,7]
   - 6647 m[8,1,5] - 2 m[8,1,6] + 3 m[8,1,7] - 50000 c[8,1,-1.0] >= -56647
 R1979: 3 m[8,0,4] + 3 m[8,0,5] + 7 m[8,0,6] + 7 m[8,0,7] + 4 m[8,1,5]
   - m[8,1,6] - m[8,1,7] - 50000 c[8,1,-1.0] >= -49995
 R1980: 4 m[8,0,4] - 6 m[8,0,5] + 15 m[8,0,6] + 2 m[8,0,7] - m[8,1,4]
   - 8 m[8,1,5] + 16 m[8,1,6] + 6 m[8,1,7] - 50000 c[8,1,-1.0] >= -49999
 R1981: 3 m[8,0,4] - 4 m[8,0,5] - 16 m[8,0,6] - 9 m[8,1,4] + 20 m[8,1,5]
   + 4 m[8,1,6] + 8 m[8,1,7] - 50000 c[8,1,-1.0] >= -50009
 R1982: c[8,2,0.0] + c[8,2,-3.0] + c[8,2,-2.0] + c[8,2,-1.41504]
   + c[8,2,-1.0] = 1
 R1983: c[8,2,0.0] = 0
 R1984: - m[8,0,9] - m[8,0,11] - m[8,1,10] - 50000 c[8,2,-3.0] >= -50002
 R1985: m[8,0,9] + m[8,0,11] - m[8,1,10] - 50000 c[8,2,-3.0] >= -50000
 R1986: - m[8,0,9] + m[8,0,11] + m[8,1,10] - 50000 c[8,2,-3.0] >= -50000
 R1987: m[8,0,9] - m[8,0,11] + m[8,1,10] - 50000 c[8,2,-3.0] >= -50000
 R1988: c[8,2,-2.0] = 0
 R1989: c[8,2,-1.41504] = 0
 R1990: c[8,2,-1.0] = 0
 R1991: c[8,3,0.0] + c[8,3,-3.0] + c[8,3,-2.0] + c[8,3,-1.41504]
   + c[8,3,-1.0] = 1
 R1992: - m[8,0,12] - m[8,0,13] - m[8,0,14] - m[8,0,15] - m[8,1,12]
   - m[8,1,13] - m[8,1,14] - m[8,1,15] - 50000 c[8,3,0.0] >= -50000
 R1993: c[8,3,-3.0] = 0
 R1994: - m[8,0,14] - m[8,0,15] - m[8,1,12] - m[8,1,13] - 50000 c[8,3,-2.0]
   >= -50003
 R1995: m[8,0,14] + 2 m[8,1,12] + 3 m[8,1,13] - 50000 c[8,3,-2.0]
   >= -49997
 R1996: 2 m[8,0,14] + 3 m[8,0,15] + 2 m[8,1,12] + m[8,1,13]
   - 50000 c[8,3,-2.0] >= -49996
 R1997: c[8,3,-1.41504] = 0
 R1998: - m[8,0,12] - 2 m[8,0,13] - 6649 m[8,0,14] + 6645 m[8,0,15]
   - 6645 m[8,1,12] - 4 m[8,1,13] - 2 m[8,1,14] - 3 m[8,1,15]
   - 50000 c[8,3,-1.0] >= -56656
 R1999: - 4 m[8,0,12] - 7 m[8,0,13] + 2 m[8,0,14] - m[8,0,15] - m[8,1,12]
   + 2 m[8,1,13] - 6 m[8,1,14] - 6 m[8,1,15] - 50000 c[8,3,-1.0] >= -50018
 R2000: 1898 m[8,0,12] + 2848 m[8,0,13] + 1901 m[8,0,14] - 6649 m[8,0,15]
   + 6647 m[8,1,12] - 5698 m[8,1,13] + 1899 m[8,1,14] + 2849 m[8,1,15]
   - 50000 c[8,3,-1.0] >= -50951
 R2001: - m[8,0,12] + 11 m[8,0,13] + 5 m[8,0,14] + 9 m[8,1,12]
   + 11 m[8,1,13] + 5 m[8,1,14] - 2 m[8,1,15] - 50000 c[8,3,-1.0]
   >= -49992
 R2002: - m[8,0,12] + 2 m[8,0,13] + 6649 m[8,0,14] - 6646 m[8,0,15]
   - 6647 m[8,1,13] - 2 m[8,1,14] + 3 m[8,1,15] - 50000 c[8,3,-1.0]
   >= -56647
 R2003: 3 m[8,0,12] + 3 m[8,0,13] + 7 m[8,0,14] + 7 m[8,0,15] + 4 m[8,1,13]
   - m[8,1,14] - m[8,1,15] - 50000 c[8,3,-1.0] >= -49995
 R2004: 4 m[8,0,12] - 6 m[8,0,13] + 15 m[8,0,14] + 2 m[8,0,15] - m[8,1,12]
   - 8 m[8,1,13] + 16 m[8,1,14] + 6 m[8,1,15] - 50000 c[8,3,-1.0]
   >= -49999
 R2005: 3 m[8,0,12] - 4 m[8,0,13] - 16 m[8,0,14] - 9 m[8,1,12]
   + 20 m[8,1,13] + 4 m[8,1,14] + 8 m[8,1,15] - 50000 c[8,3,-1.0]
   >= -50009
 R2006: c[8,4,0.0] + c[8,4,-3.0] + c[8,4,-2.0] + c[8,4,-1.41504]
   + c[8,4,-1.0] = 1
 R2007: - m[8,0,16] - m[8,0,17] - m[8,0,18] - m[8,0,19] - m[8,1,16]
   - m[8,1,17] - m[8,1,18] - m[8,1,19] - 50000 c[8,4,0.0] >= -50000
 R2008: c[8,4,-3.0] = 0
 R2009: - m[8,0,18] - m[8,0,19] - m[8,1,16] - m[8,1,17] - 50000 c[8,4,-2.0]
   >= -50003
 R2010: m[8,0,18] + 2 m[8,1,16] + 3 m[8,1,17] - 50000 c[8,4,-2.0]
   >= -49997
 R2011: 2 m[8,0,18] + 3 m[8,0,19] + 2 m[8,1,16] + m[8,1,17]
   - 50000 c[8,4,-2.0] >= -49996
 R2012: c[8,4,-1.41504] = 0
 R2013: - m[8,0,16] - 2 m[8,0,17] - 6649 m[8,0,18] + 6645 m[8,0,19]
   - 6645 m[8,1,16] - 4 m[8,1,17] - 2 m[8,1,18] - 3 m[8,1,19]
   - 50000 c[8,4,-1.0] >= -56656
 R2014: - 4 m[8,0,16] - 7 m[8,0,17] + 2 m[8,0,18] - m[8,0,19] - m[8,1,16]
   + 2 m[8,1,17] - 6 m[8,1,18] - 6 m[8,1,19] - 50000 c[8,4,-1.0] >= -50018
 R2015: 1898 m[8,0,16] + 2848 m[8,0,17] + 1901 m[8,0,18] - 6649 m[8,0,19]
   + 6647 m[8,1,16] - 5698 m[8,1,17] + 1899 m[8,1,18] + 2849 m[8,1,19]
   - 50000 c[8,4,-1.0] >= -50951
 R2016: - m[8,0,16] + 11 m[8,0,17] + 5 m[8,0,18] + 9 m[8,1,16]
   + 11 m[8,1,17] + 5 m[8,1,18] - 2 m[8,1,19] - 50000 c[8,4,-1.0]
   >= -49992
 R2017: - m[8,0,16] + 2 m[8,0,17] + 6649 m[8,0,18] - 6646 m[8,0,19]
   - 6647 m[8,1,17] - 2 m[8,1,18] + 3 m[8,1,19] - 50000 c[8,4,-1.0]
   >= -56647
 R2018: 3 m[8,0,16] + 3 m[8,0,17] + 7 m[8,0,18] + 7 m[8,0,19] + 4 m[8,1,17]
   - m[8,1,18] - m[8,1,19] - 50000 c[8,4,-1.0] >= -49995
 R2019: 4 m[8,0,16] - 6 m[8,0,17] + 15 m[8,0,18] + 2 m[8,0,19] - m[8,1,16]
   - 8 m[8,1,17] + 16 m[8,1,18] + 6 m[8,1,19] - 50000 c[8,4,-1.0]
   >= -49999
 R2020: 3 m[8,0,16] - 4 m[8,0,17] - 16 m[8,0,18] - 9 m[8,1,16]
   + 20 m[8,1,17] + 4 m[8,1,18] + 8 m[8,1,19] - 50000 c[8,4,-1.0]
   >= -50009
 R2021: c[8,5,0.0] + c[8,5,-3.0] + c[8,5,-2.0] + c[8,5,-1.41504]
   + c[8,5,-1.0] = 1
 R2022: - m[8,0,20] - m[8,0,21] - m[8,0,22] - m[8,0,23] - m[8,1,20]
   - m[8,1,21] - m[8,1,22] - m[8,1,23] - 50000 c[8,5,0.0] >= -50000
 R2023: c[8,5,-3.0] = 0
 R2024: - m[8,0,22] - m[8,0,23] - m[8,1,20] - m[8,1,21] - 50000 c[8,5,-2.0]
   >= -50003
 R2025: m[8,0,22] + 2 m[8,1,20] + 3 m[8,1,21] - 50000 c[8,5,-2.0]
   >= -49997
 R2026: 2 m[8,0,22] + 3 m[8,0,23] + 2 m[8,1,20] + m[8,1,21]
   - 50000 c[8,5,-2.0] >= -49996
 R2027: c[8,5,-1.41504] = 0
 R2028: - m[8,0,20] - 2 m[8,0,21] - 6649 m[8,0,22] + 6645 m[8,0,23]
   - 6645 m[8,1,20] - 4 m[8,1,21] - 2 m[8,1,22] - 3 m[8,1,23]
   - 50000 c[8,5,-1.0] >= -56656
 R2029: - 4 m[8,0,20] - 7 m[8,0,21] + 2 m[8,0,22] - m[8,0,23] - m[8,1,20]
   + 2 m[8,1,21] - 6 m[8,1,22] - 6 m[8,1,23] - 50000 c[8,5,-1.0] >= -50018
 R2030: 1898 m[8,0,20] + 2848 m[8,0,21] + 1901 m[8,0,22] - 6649 m[8,0,23]
   + 6647 m[8,1,20] - 5698 m[8,1,21] + 1899 m[8,1,22] + 2849 m[8,1,23]
   - 50000 c[8,5,-1.0] >= -50951
 R2031: - m[8,0,20] + 11 m[8,0,21] + 5 m[8,0,22] + 9 m[8,1,20]
   + 11 m[8,1,21] + 5 m[8,1,22] - 2 m[8,1,23] - 50000 c[8,5,-1.0]
   >= -49992
 R2032: - m[8,0,20] + 2 m[8,0,21] + 6649 m[8,0,22] - 6646 m[8,0,23]
   - 6647 m[8,1,21] - 2 m[8,1,22] + 3 m[8,1,23] - 50000 c[8,5,-1.0]
   >= -56647
 R2033: 3 m[8,0,20] + 3 m[8,0,21] + 7 m[8,0,22] + 7 m[8,0,23] + 4 m[8,1,21]
   - m[8,1,22] - m[8,1,23] - 50000 c[8,5,-1.0] >= -49995
 R2034: 4 m[8,0,20] - 6 m[8,0,21] + 15 m[8,0,22] + 2 m[8,0,23] - m[8,1,20]
   - 8 m[8,1,21] + 16 m[8,1,22] + 6 m[8,1,23] - 50000 c[8,5,-1.0]
   >= -49999
 R2035: 3 m[8,0,20] - 4 m[8,0,21] - 16 m[8,0,22] - 9 m[8,1,20]
   + 20 m[8,1,21] + 4 m[8,1,22] + 8 m[8,1,23] - 50000 c[8,5,-1.0]
   >= -50009
 R2036: c[8,6,0.0] + c[8,6,-3.0] + c[8,6,-2.0] + c[8,6,-1.41504]
   + c[8,6,-1.0] = 1
 R2037: - m[8,0,24] - m[8,0,25] - m[8,0,26] - m[8,0,27] - m[8,1,24]
   - m[8,1,25] - m[8,1,26] - m[8,1,27] - 50000 c[8,6,0.0] >= -50000
 R2038: c[8,6,-3.0] = 0
 R2039: - m[8,0,26] - m[8,0,27] - m[8,1,24] - m[8,1,25] - 50000 c[8,6,-2.0]
   >= -50003
 R2040: m[8,0,26] + 2 m[8,1,24] + 3 m[8,1,25] - 50000 c[8,6,-2.0]
   >= -49997
 R2041: 2 m[8,0,26] + 3 m[8,0,27] + 2 m[8,1,24] + m[8,1,25]
   - 50000 c[8,6,-2.0] >= -49996
 R2042: c[8,6,-1.41504] = 0
 R2043: - m[8,0,24] - 2 m[8,0,25] - 6649 m[8,0,26] + 6645 m[8,0,27]
   - 6645 m[8,1,24] - 4 m[8,1,25] - 2 m[8,1,26] - 3 m[8,1,27]
   - 50000 c[8,6,-1.0] >= -56656
 R2044: - 4 m[8,0,24] - 7 m[8,0,25] + 2 m[8,0,26] - m[8,0,27] - m[8,1,24]
   + 2 m[8,1,25] - 6 m[8,1,26] - 6 m[8,1,27] - 50000 c[8,6,-1.0] >= -50018
 R2045: 1898 m[8,0,24] + 2848 m[8,0,25] + 1901 m[8,0,26] - 6649 m[8,0,27]
   + 6647 m[8,1,24] - 5698 m[8,1,25] + 1899 m[8,1,26] + 2849 m[8,1,27]
   - 50000 c[8,6,-1.0] >= -50951
 R2046: - m[8,0,24] + 11 m[8,0,25] + 5 m[8,0,26] + 9 m[8,1,24]
   + 11 m[8,1,25] + 5 m[8,1,26] - 2 m[8,1,27] - 50000 c[8,6,-1.0]
   >= -49992
 R2047: - m[8,0,24] + 2 m[8,0,25] + 6649 m[8,0,26] - 6646 m[8,0,27]
   - 6647 m[8,1,25] - 2 m[8,1,26] + 3 m[8,1,27] - 50000 c[8,6,-1.0]
   >= -56647
 R2048: 3 m[8,0,24] + 3 m[8,0,25] + 7 m[8,0,26] + 7 m[8,0,27] + 4 m[8,1,25]
   - m[8,1,26] - m[8,1,27] - 50000 c[8,6,-1.0] >= -49995
 R2049: 4 m[8,0,24] - 6 m[8,0,25] + 15 m[8,0,26] + 2 m[8,0,27] - m[8,1,24]
   - 8 m[8,1,25] + 16 m[8,1,26] + 6 m[8,1,27] - 50000 c[8,6,-1.0]
   >= -49999
 R2050: 3 m[8,0,24] - 4 m[8,0,25] - 16 m[8,0,26] - 9 m[8,1,24]
   + 20 m[8,1,25] + 4 m[8,1,26] + 8 m[8,1,27] - 50000 c[8,6,-1.0]
   >= -50009
 R2051: c[8,7,0.0] + c[8,7,-3.0] + c[8,7,-2.0] + c[8,7,-1.41504]
   + c[8,7,-1.0] = 1
 R2052: - m[8,0,28] - m[8,0,29] - m[8,0,30] - m[8,0,31] - m[8,1,28]
   - m[8,1,29] - m[8,1,30] - m[8,1,31] - 50000 c[8,7,0.0] >= -50000
 R2053: c[8,7,-3.0] = 0
 R2054: - m[8,0,30] - m[8,0,31] - m[8,1,28] - m[8,1,29] - 50000 c[8,7,-2.0]
   >= -50003
 R2055: m[8,0,30] + 2 m[8,1,28] + 3 m[8,1,29] - 50000 c[8,7,-2.0]
   >= -49997
 R2056: 2 m[8,0,30] + 3 m[8,0,31] + 2 m[8,1,28] + m[8,1,29]
   - 50000 c[8,7,-2.0] >= -49996
 R2057: c[8,7,-1.41504] = 0
 R2058: - m[8,0,28] - 2 m[8,0,29] - 6649 m[8,0,30] + 6645 m[8,0,31]
   - 6645 m[8,1,28] - 4 m[8,1,29] - 2 m[8,1,30] - 3 m[8,1,31]
   - 50000 c[8,7,-1.0] >= -56656
 R2059: - 4 m[8,0,28] - 7 m[8,0,29] + 2 m[8,0,30] - m[8,0,31] - m[8,1,28]
   + 2 m[8,1,29] - 6 m[8,1,30] - 6 m[8,1,31] - 50000 c[8,7,-1.0] >= -50018
 R2060: 1898 m[8,0,28] + 2848 m[8,0,29] + 1901 m[8,0,30] - 6649 m[8,0,31]
   + 6647 m[8,1,28] - 5698 m[8,1,29] + 1899 m[8,1,30] + 2849 m[8,1,31]
   - 50000 c[8,7,-1.0] >= -50951
 R2061: - m[8,0,28] + 11 m[8,0,29] + 5 m[8,0,30] + 9 m[8,1,28]
   + 11 m[8,1,29] + 5 m[8,1,30] - 2 m[8,1,31] - 50000 c[8,7,-1.0]
   >= -49992
 R2062: - m[8,0,28] + 2 m[8,0,29] + 6649 m[8,0,30] - 6646 m[8,0,31]
   - 6647 m[8,1,29] - 2 m[8,1,30] + 3 m[8,1,31] - 50000 c[8,7,-1.0]
   >= -56647
 R2063: 3 m[8,0,28] + 3 m[8,0,29] + 7 m[8,0,30] + 7 m[8,0,31] + 4 m[8,1,29]
   - m[8,1,30] - m[8,1,31] - 50000 c[8,7,-1.0] >= -49995
 R2064: 4 m[8,0,28] - 6 m[8,0,29] + 15 m[8,0,30] + 2 m[8,0,31] - m[8,1,28]
   - 8 m[8,1,29] + 16 m[8,1,30] + 6 m[8,1,31] - 50000 c[8,7,-1.0]
   >= -49999
 R2065: 3 m[8,0,28] - 4 m[8,0,29] - 16 m[8,0,30] - 9 m[8,1,28]
   + 20 m[8,1,29] + 4 m[8,1,30] + 8 m[8,1,31] - 50000 c[8,7,-1.0]
   >= -50009
 R2066: c[8,8,0.0] + c[8,8,-3.0] + c[8,8,-2.0] + c[8,8,-1.41504]
   + c[8,8,-1.0] = 1
 R2067: - m[8,0,32] - m[8,0,33] - m[8,0,34] - m[8,0,35] - m[8,1,32]
   - m[8,1,33] - m[8,1,34] - m[8,1,35] - 50000 c[8,8,0.0] >= -50000
 R2068: c[8,8,-3.0] = 0
 R2069: - m[8,0,34] - m[8,0,35] - m[8,1,32] - m[8,1,33] - 50000 c[8,8,-2.0]
   >= -50003
 R2070: m[8,0,34] + 2 m[8,1,32] + 3 m[8,1,33] - 50000 c[8,8,-2.0]
   >= -49997
 R2071: 2 m[8,0,34] + 3 m[8,0,35] + 2 m[8,1,32] + m[8,1,33]
   - 50000 c[8,8,-2.0] >= -49996
 R2072: c[8,8,-1.41504] = 0
 R2073: - m[8,0,32] - 2 m[8,0,33] - 6649 m[8,0,34] + 6645 m[8,0,35]
   - 6645 m[8,1,32] - 4 m[8,1,33] - 2 m[8,1,34] - 3 m[8,1,35]
   - 50000 c[8,8,-1.0] >= -56656
 R2074: - 4 m[8,0,32] - 7 m[8,0,33] + 2 m[8,0,34] - m[8,0,35] - m[8,1,32]
   + 2 m[8,1,33] - 6 m[8,1,34] - 6 m[8,1,35] - 50000 c[8,8,-1.0] >= -50018
 R2075: 1898 m[8,0,32] + 2848 m[8,0,33] + 1901 m[8,0,34] - 6649 m[8,0,35]
   + 6647 m[8,1,32] - 5698 m[8,1,33] + 1899 m[8,1,34] + 2849 m[8,1,35]
   - 50000 c[8,8,-1.0] >= -50951
 R2076: - m[8,0,32] + 11 m[8,0,33] + 5 m[8,0,34] + 9 m[8,1,32]
   + 11 m[8,1,33] + 5 m[8,1,34] - 2 m[8,1,35] - 50000 c[8,8,-1.0]
   >= -49992
 R2077: - m[8,0,32] + 2 m[8,0,33] + 6649 m[8,0,34] - 6646 m[8,0,35]
   - 6647 m[8,1,33] - 2 m[8,1,34] + 3 m[8,1,35] - 50000 c[8,8,-1.0]
   >= -56647
 R2078: 3 m[8,0,32] + 3 m[8,0,33] + 7 m[8,0,34] + 7 m[8,0,35] + 4 m[8,1,33]
   - m[8,1,34] - m[8,1,35] - 50000 c[8,8,-1.0] >= -49995
 R2079: 4 m[8,0,32] - 6 m[8,0,33] + 15 m[8,0,34] + 2 m[8,0,35] - m[8,1,32]
   - 8 m[8,1,33] + 16 m[8,1,34] + 6 m[8,1,35] - 50000 c[8,8,-1.0]
   >= -49999
 R2080: 3 m[8,0,32] - 4 m[8,0,33] - 16 m[8,0,34] - 9 m[8,1,32]
   + 20 m[8,1,33] + 4 m[8,1,34] + 8 m[8,1,35] - 50000 c[8,8,-1.0]
   >= -50009
 R2081: c[8,9,0.0] + c[8,9,-3.0] + c[8,9,-2.0] + c[8,9,-1.41504]
   + c[8,9,-1.0] = 1
 R2082: - m[8,0,36] - m[8,0,37] - m[8,0,38] - m[8,0,39] - m[8,1,36]
   - m[8,1,37] - m[8,1,38] - m[8,1,39] - 50000 c[8,9,0.0] >= -50000
 R2083: c[8,9,-3.0] = 0
 R2084: - m[8,0,38] - m[8,0,39] - m[8,1,36] - m[8,1,37] - 50000 c[8,9,-2.0]
   >= -50003
 R2085: m[8,0,38] + 2 m[8,1,36] + 3 m[8,1,37] - 50000 c[8,9,-2.0]
   >= -49997
 R2086: 2 m[8,0,38] + 3 m[8,0,39] + 2 m[8,1,36] + m[8,1,37]
   - 50000 c[8,9,-2.0] >= -49996
 R2087: c[8,9,-1.41504] = 0
 R2088: - m[8,0,36] - 2 m[8,0,37] - 6649 m[8,0,38] + 6645 m[8,0,39]
   - 6645 m[8,1,36] - 4 m[8,1,37] - 2 m[8,1,38] - 3 m[8,1,39]
   - 50000 c[8,9,-1.0] >= -56656
 R2089: - 4 m[8,0,36] - 7 m[8,0,37] + 2 m[8,0,38] - m[8,0,39] - m[8,1,36]
   + 2 m[8,1,37] - 6 m[8,1,38] - 6 m[8,1,39] - 50000 c[8,9,-1.0] >= -50018
 R2090: 1898 m[8,0,36] + 2848 m[8,0,37] + 1901 m[8,0,38] - 6649 m[8,0,39]
   + 6647 m[8,1,36] - 5698 m[8,1,37] + 1899 m[8,1,38] + 2849 m[8,1,39]
   - 50000 c[8,9,-1.0] >= -50951
 R2091: - m[8,0,36] + 11 m[8,0,37] + 5 m[8,0,38] + 9 m[8,1,36]
   + 11 m[8,1,37] + 5 m[8,1,38] - 2 m[8,1,39] - 50000 c[8,9,-1.0]
   >= -49992
 R2092: - m[8,0,36] + 2 m[8,0,37] + 6649 m[8,0,38] - 6646 m[8,0,39]
   - 6647 m[8,1,37] - 2 m[8,1,38] + 3 m[8,1,39] - 50000 c[8,9,-1.0]
   >= -56647
 R2093: 3 m[8,0,36] + 3 m[8,0,37] + 7 m[8,0,38] + 7 m[8,0,39] + 4 m[8,1,37]
   - m[8,1,38] - m[8,1,39] - 50000 c[8,9,-1.0] >= -49995
 R2094: 4 m[8,0,36] - 6 m[8,0,37] + 15 m[8,0,38] + 2 m[8,0,39] - m[8,1,36]
   - 8 m[8,1,37] + 16 m[8,1,38] + 6 m[8,1,39] - 50000 c[8,9,-1.0]
   >= -49999
 R2095: 3 m[8,0,36] - 4 m[8,0,37] - 16 m[8,0,38] - 9 m[8,1,36]
   + 20 m[8,1,37] + 4 m[8,1,38] + 8 m[8,1,39] - 50000 c[8,9,-1.0]
   >= -50009
 R2096: c[8,10,0.0] + c[8,10,-3.0] + c[8,10,-2.0] + c[8,10,-1.41504]
   + c[8,10,-1.0] = 1
 R2097: c[8,10,0.0] = 0
 R2098: - m[8,0,41] - m[8,0,43] - m[8,1,42] - 50000 c[8,10,-3.0] >= -50002
 R2099: m[8,0,41] + m[8,0,43] - m[8,1,42] - 50000 c[8,10,-3.0] >= -50000
 R2100: - m[8,0,41] + m[8,0,43] + m[8,1,42] - 50000 c[8,10,-3.0] >= -50000
 R2101: m[8,0,41] - m[8,0,43] + m[8,1,42] - 50000 c[8,10,-3.0] >= -50000
 R2102: c[8,10,-2.0] = 0
 R2103: c[8,10,-1.41504] = 0
 R2104: c[8,10,-1.0] = 0
 R2105: c[8,11,0.0] + c[8,11,-3.0] + c[8,11,-2.0] + c[8,11,-1.41504]
   + c[8,11,-1.0] = 1
 R2106: - m[8,0,44] - m[8,0,45] - m[8,0,46] - m[8,0,47] - m[8,1,44]
   - m[8,1,45] - m[8,1,46] - m[8,1,47] - 50000 c[8,11,0.0] >= -50000
 R2107: c[8,11,-3.0] = 0
 R2108: - m[8,0,46] - m[8,0,47] - m[8,1,44] - m[8,1,45]
   - 50000 c[8,11,-2.0] >= -50003
 R2109: m[8,0,46] + 2 m[8,1,44] + 3 m[8,1,45] - 50000 c[8,11,-2.0]
   >= -49997
 R2110: 2 m[8,0,46] + 3 m[8,0,47] + 2 m[8,1,44] + m[8,1,45]
   - 50000 c[8,11,-2.0] >= -49996
 R2111: c[8,11,-1.41504] = 0
 R2112: - m[8,0,44] - 2 m[8,0,45] - 6649 m[8,0,46] + 6645 m[8,0,47]
   - 6645 m[8,1,44] - 4 m[8,1,45] - 2 m[8,1,46] - 3 m[8,1,47]
   - 50000 c[8,11,-1.0] >= -56656
 R2113: - 4 m[8,0,44] - 7 m[8,0,45] + 2 m[8,0,46] - m[8,0,47] - m[8,1,44]
   + 2 m[8,1,45] - 6 m[8,1,46] - 6 m[8,1,47] - 50000 c[8,11,-1.0]
   >= -50018
 R2114: 1898 m[8,0,44] + 2848 m[8,0,45] + 1901 m[8,0,46] - 6649 m[8,0,47]
   + 6647 m[8,1,44] - 5698 m[8,1,45] + 1899 m[8,1,46] + 2849 m[8,1,47]
   - 50000 c[8,11,-1.0] >= -50951
 R2115: - m[8,0,44] + 11 m[8,0,45] + 5 m[8,0,46] + 9 m[8,1,44]
   + 11 m[8,1,45] + 5 m[8,1,46] - 2 m[8,1,47] - 50000 c[8,11,-1.0]
   >= -49992
 R2116: - m[8,0,44] + 2 m[8,0,45] + 6649 m[8,0,46] - 6646 m[8,0,47]
   - 6647 m[8,1,45] - 2 m[8,1,46] + 3 m[8,1,47] - 50000 c[8,11,-1.0]
   >= -56647
 R2117: 3 m[8,0,44] + 3 m[8,0,45] + 7 m[8,0,46] + 7 m[8,0,47] + 4 m[8,1,45]
   - m[8,1,46] - m[8,1,47] - 50000 c[8,11,-1.0] >= -49995
 R2118: 4 m[8,0,44] - 6 m[8,0,45] + 15 m[8,0,46] + 2 m[8,0,47] - m[8,1,44]
   - 8 m[8,1,45] + 16 m[8,1,46] + 6 m[8,1,47] - 50000 c[8,11,-1.0]
   >= -49999
 R2119: 3 m[8,0,44] - 4 m[8,0,45] - 16 m[8,0,46] - 9 m[8,1,44]
   + 20 m[8,1,45] + 4 m[8,1,46] + 8 m[8,1,47] - 50000 c[8,11,-1.0]
   >= -50009
 R2120: c[8,12,0.0] + c[8,12,-3.0] + c[8,12,-2.0] + c[8,12,-1.41504]
   + c[8,12,-1.0] = 1
 R2121: - m[8,0,48] - m[8,0,49] - m[8,0,50] - m[8,0,51] - m[8,1,48]
   - m[8,1,49] - m[8,1,50] - m[8,1,51] - 50000 c[8,12,0.0] >= -50000
 R2122: c[8,12,-3.0] = 0
 R2123: - m[8,0,50] - m[8,0,51] - m[8,1,48] - m[8,1,49]
   - 50000 c[8,12,-2.0] >= -50003
 R2124: m[8,0,50] + 2 m[8,1,48] + 3 m[8,1,49] - 50000 c[8,12,-2.0]
   >= -49997
 R2125: 2 m[8,0,50] + 3 m[8,0,51] + 2 m[8,1,48] + m[8,1,49]
   - 50000 c[8,12,-2.0] >= -49996
 R2126: c[8,12,-1.41504] = 0
 R2127: - m[8,0,48] - 2 m[8,0,49] - 6649 m[8,0,50] + 6645 m[8,0,51]
   - 6645 m[8,1,48] - 4 m[8,1,49] - 2 m[8,1,50] - 3 m[8,1,51]
   - 50000 c[8,12,-1.0] >= -56656
 R2128: - 4 m[8,0,48] - 7 m[8,0,49] + 2 m[8,0,50] - m[8,0,51] - m[8,1,48]
   + 2 m[8,1,49] - 6 m[8,1,50] - 6 m[8,1,51] - 50000 c[8,12,-1.0]
   >= -50018
 R2129: 1898 m[8,0,48] + 2848 m[8,0,49] + 1901 m[8,0,50] - 6649 m[8,0,51]
   + 6647 m[8,1,48] - 5698 m[8,1,49] + 1899 m[8,1,50] + 2849 m[8,1,51]
   - 50000 c[8,12,-1.0] >= -50951
 R2130: - m[8,0,48] + 11 m[8,0,49] + 5 m[8,0,50] + 9 m[8,1,48]
   + 11 m[8,1,49] + 5 m[8,1,50] - 2 m[8,1,51] - 50000 c[8,12,-1.0]
   >= -49992
 R2131: - m[8,0,48] + 2 m[8,0,49] + 6649 m[8,0,50] - 6646 m[8,0,51]
   - 6647 m[8,1,49] - 2 m[8,1,50] + 3 m[8,1,51] - 50000 c[8,12,-1.0]
   >= -56647
 R2132: 3 m[8,0,48] + 3 m[8,0,49] + 7 m[8,0,50] + 7 m[8,0,51] + 4 m[8,1,49]
   - m[8,1,50] - m[8,1,51] - 50000 c[8,12,-1.0] >= -49995
 R2133: 4 m[8,0,48] - 6 m[8,0,49] + 15 m[8,0,50] + 2 m[8,0,51] - m[8,1,48]
   - 8 m[8,1,49] + 16 m[8,1,50] + 6 m[8,1,51] - 50000 c[8,12,-1.0]
   >= -49999
 R2134: 3 m[8,0,48] - 4 m[8,0,49] - 16 m[8,0,50] - 9 m[8,1,48]
   + 20 m[8,1,49] + 4 m[8,1,50] + 8 m[8,1,51] - 50000 c[8,12,-1.0]
   >= -50009
 R2135: c[8,13,0.0] + c[8,13,-3.0] + c[8,13,-2.0] + c[8,13,-1.41504]
   + c[8,13,-1.0] = 1
 R2136: - m[8,0,52] - m[8,0,53] - m[8,0,54] - m[8,0,55] - m[8,1,52]
   - m[8,1,53] - m[8,1,54] - m[8,1,55] - 50000 c[8,13,0.0] >= -50000
 R2137: c[8,13,-3.0] = 0
 R2138: - m[8,0,54] - m[8,0,55] - m[8,1,52] - m[8,1,53]
   - 50000 c[8,13,-2.0] >= -50003
 R2139: m[8,0,54] + 2 m[8,1,52] + 3 m[8,1,53] - 50000 c[8,13,-2.0]
   >= -49997
 R2140: 2 m[8,0,54] + 3 m[8,0,55] + 2 m[8,1,52] + m[8,1,53]
   - 50000 c[8,13,-2.0] >= -49996
 R2141: c[8,13,-1.41504] = 0
 R2142: - m[8,0,52] - 2 m[8,0,53] - 6649 m[8,0,54] + 6645 m[8,0,55]
   - 6645 m[8,1,52] - 4 m[8,1,53] - 2 m[8,1,54] - 3 m[8,1,55]
   - 50000 c[8,13,-1.0] >= -56656
 R2143: - 4 m[8,0,52] - 7 m[8,0,53] + 2 m[8,0,54] - m[8,0,55] - m[8,1,52]
   + 2 m[8,1,53] - 6 m[8,1,54] - 6 m[8,1,55] - 50000 c[8,13,-1.0]
   >= -50018
 R2144: 1898 m[8,0,52] + 2848 m[8,0,53] + 1901 m[8,0,54] - 6649 m[8,0,55]
   + 6647 m[8,1,52] - 5698 m[8,1,53] + 1899 m[8,1,54] + 2849 m[8,1,55]
   - 50000 c[8,13,-1.0] >= -50951
 R2145: - m[8,0,52] + 11 m[8,0,53] + 5 m[8,0,54] + 9 m[8,1,52]
   + 11 m[8,1,53] + 5 m[8,1,54] - 2 m[8,1,55] - 50000 c[8,13,-1.0]
   >= -49992
 R2146: - m[8,0,52] + 2 m[8,0,53] + 6649 m[8,0,54] - 6646 m[8,0,55]
   - 6647 m[8,1,53] - 2 m[8,1,54] + 3 m[8,1,55] - 50000 c[8,13,-1.0]
   >= -56647
 R2147: 3 m[8,0,52] + 3 m[8,0,53] + 7 m[8,0,54] + 7 m[8,0,55] + 4 m[8,1,53]
   - m[8,1,54] - m[8,1,55] - 50000 c[8,13,-1.0] >= -49995
 R2148: 4 m[8,0,52] - 6 m[8,0,53] + 15 m[8,0,54] + 2 m[8,0,55] - m[8,1,52]
   - 8 m[8,1,53] + 16 m[8,1,54] + 6 m[8,1,55] - 50000 c[8,13,-1.0]
   >= -49999
 R2149: 3 m[8,0,52] - 4 m[8,0,53] - 16 m[8,0,54] - 9 m[8,1,52]
   + 20 m[8,1,53] + 4 m[8,1,54] + 8 m[8,1,55] - 50000 c[8,13,-1.0]
   >= -50009
 R2150: c[8,14,0.0] + c[8,14,-3.0] + c[8,14,-2.0] + c[8,14,-1.41504]
   + c[8,14,-1.0] = 1
 R2151: - m[8,0,56] - m[8,0,57] - m[8,0,58] - m[8,0,59] - m[8,1,56]
   - m[8,1,57] - m[8,1,58] - m[8,1,59] - 50000 c[8,14,0.0] >= -50000
 R2152: c[8,14,-3.0] = 0
 R2153: - m[8,0,58] - m[8,0,59] - m[8,1,56] - m[8,1,57]
   - 50000 c[8,14,-2.0] >= -50003
 R2154: m[8,0,58] + 2 m[8,1,56] + 3 m[8,1,57] - 50000 c[8,14,-2.0]
   >= -49997
 R2155: 2 m[8,0,58] + 3 m[8,0,59] + 2 m[8,1,56] + m[8,1,57]
   - 50000 c[8,14,-2.0] >= -49996
 R2156: c[8,14,-1.41504] = 0
 R2157: - m[8,0,56] - 2 m[8,0,57] - 6649 m[8,0,58] + 6645 m[8,0,59]
   - 6645 m[8,1,56] - 4 m[8,1,57] - 2 m[8,1,58] - 3 m[8,1,59]
   - 50000 c[8,14,-1.0] >= -56656
 R2158: - 4 m[8,0,56] - 7 m[8,0,57] + 2 m[8,0,58] - m[8,0,59] - m[8,1,56]
   + 2 m[8,1,57] - 6 m[8,1,58] - 6 m[8,1,59] - 50000 c[8,14,-1.0]
   >= -50018
 R2159: 1898 m[8,0,56] + 2848 m[8,0,57] + 1901 m[8,0,58] - 6649 m[8,0,59]
   + 6647 m[8,1,56] - 5698 m[8,1,57] + 1899 m[8,1,58] + 2849 m[8,1,59]
   - 50000 c[8,14,-1.0] >= -50951
 R2160: - m[8,0,56] + 11 m[8,0,57] + 5 m[8,0,58] + 9 m[8,1,56]
   + 11 m[8,1,57] + 5 m[8,1,58] - 2 m[8,1,59] - 50000 c[8,14,-1.0]
   >= -49992
 R2161: - m[8,0,56] + 2 m[8,0,57] + 6649 m[8,0,58] - 6646 m[8,0,59]
   - 6647 m[8,1,57] - 2 m[8,1,58] + 3 m[8,1,59] - 50000 c[8,14,-1.0]
   >= -56647
 R2162: 3 m[8,0,56] + 3 m[8,0,57] + 7 m[8,0,58] + 7 m[8,0,59] + 4 m[8,1,57]
   - m[8,1,58] - m[8,1,59] - 50000 c[8,14,-1.0] >= -49995
 R2163: 4 m[8,0,56] - 6 m[8,0,57] + 15 m[8,0,58] + 2 m[8,0,59] - m[8,1,56]
   - 8 m[8,1,57] + 16 m[8,1,58] + 6 m[8,1,59] - 50000 c[8,14,-1.0]
   >= -49999
 R2164: 3 m[8,0,56] - 4 m[8,0,57] - 16 m[8,0,58] - 9 m[8,1,56]
   + 20 m[8,1,57] + 4 m[8,1,58] + 8 m[8,1,59] - 50000 c[8,14,-1.0]
   >= -50009
 R2165: c[8,15,0.0] + c[8,15,-3.0] + c[8,15,-2.0] + c[8,15,-1.41504]
   + c[8,15,-1.0] = 1
 R2166: - m[8,0,60] - m[8,0,61] - m[8,0,62] - m[8,0,63] - m[8,1,60]
   - m[8,1,61] - m[8,1,62] - m[8,1,63] - 50000 c[8,15,0.0] >= -50000
 R2167: c[8,15,-3.0] = 0
 R2168: - m[8,0,62] - m[8,0,63] - m[8,1,60] - m[8,1,61]
   - 50000 c[8,15,-2.0] >= -50003
 R2169: m[8,0,62] + 2 m[8,1,60] + 3 m[8,1,61] - 50000 c[8,15,-2.0]
   >= -49997
 R2170: 2 m[8,0,62] + 3 m[8,0,63] + 2 m[8,1,60] + m[8,1,61]
   - 50000 c[8,15,-2.0] >= -49996
 R2171: c[8,15,-1.41504] = 0
 R2172: - m[8,0,60] - 2 m[8,0,61] - 6649 m[8,0,62] + 6645 m[8,0,63]
   - 6645 m[8,1,60] - 4 m[8,1,61] - 2 m[8,1,62] - 3 m[8,1,63]
   - 50000 c[8,15,-1.0] >= -56656
 R2173: - 4 m[8,0,60] - 7 m[8,0,61] + 2 m[8,0,62] - m[8,0,63] - m[8,1,60]
   + 2 m[8,1,61] - 6 m[8,1,62] - 6 m[8,1,63] - 50000 c[8,15,-1.0]
   >= -50018
 R2174: 1898 m[8,0,60] + 2848 m[8,0,61] + 1901 m[8,0,62] - 6649 m[8,0,63]
   + 6647 m[8,1,60] - 5698 m[8,1,61] + 1899 m[8,1,62] + 2849 m[8,1,63]
   - 50000 c[8,15,-1.0] >= -50951
 R2175: - m[8,0,60] + 11 m[8,0,61] + 5 m[8,0,62] + 9 m[8,1,60]
   + 11 m[8,1,61] + 5 m[8,1,62] - 2 m[8,1,63] - 50000 c[8,15,-1.0]
   >= -49992
 R2176: - m[8,0,60] + 2 m[8,0,61] + 6649 m[8,0,62] - 6646 m[8,0,63]
   - 6647 m[8,1,61] - 2 m[8,1,62] + 3 m[8,1,63] - 50000 c[8,15,-1.0]
   >= -56647
 R2177: 3 m[8,0,60] + 3 m[8,0,61] + 7 m[8,0,62] + 7 m[8,0,63] + 4 m[8,1,61]
   - m[8,1,62] - m[8,1,63] - 50000 c[8,15,-1.0] >= -49995
 R2178: 4 m[8,0,60] - 6 m[8,0,61] + 15 m[8,0,62] + 2 m[8,0,63] - m[8,1,60]
   - 8 m[8,1,61] + 16 m[8,1,62] + 6 m[8,1,63] - 50000 c[8,15,-1.0]
   >= -49999
 R2179: 3 m[8,0,60] - 4 m[8,0,61] - 16 m[8,0,62] - 9 m[8,1,60]
   + 20 m[8,1,61] + 4 m[8,1,62] + 8 m[8,1,63] - 50000 c[8,15,-1.0]
   >= -50009
 R2180: c[9,0,0.0] + c[9,0,-3.0] + c[9,0,-2.0] + c[9,0,-1.41504]
   + c[9,0,-1.0] = 1
 R2181: - m[9,0,0] - m[9,0,1] - m[9,0,2] - m[9,0,3] - m[9,1,0] - m[9,1,1]
   - m[9,1,2] - m[9,1,3] - 50000 c[9,0,0.0] >= -50000
 R2182: c[9,0,-3.0] = 0
 R2183: - m[9,0,2] - m[9,0,3] - m[9,1,0] - m[9,1,1] - 50000 c[9,0,-2.0]
   >= -50003
 R2184: m[9,0,2] + 2 m[9,1,0] + 3 m[9,1,1] - 50000 c[9,0,-2.0] >= -49997
 R2185: 2 m[9,0,2] + 3 m[9,0,3] + 2 m[9,1,0] + m[9,1,1] - 50000 c[9,0,-2.0]
   >= -49996
 R2186: c[9,0,-1.41504] = 0
 R2187: - m[9,0,0] - 2 m[9,0,1] - 6649 m[9,0,2] + 6645 m[9,0,3]
   - 6645 m[9,1,0] - 4 m[9,1,1] - 2 m[9,1,2] - 3 m[9,1,3]
   - 50000 c[9,0,-1.0] >= -56656
 R2188: - 4 m[9,0,0] - 7 m[9,0,1] + 2 m[9,0,2] - m[9,0,3] - m[9,1,0]
   + 2 m[9,1,1] - 6 m[9,1,2] - 6 m[9,1,3] - 50000 c[9,0,-1.0] >= -50018
 R2189: 1898 m[9,0,0] + 2848 m[9,0,1] + 1901 m[9,0,2] - 6649 m[9,0,3]
   + 6647 m[9,1,0] - 5698 m[9,1,1] + 1899 m[9,1,2] + 2849 m[9,1,3]
   - 50000 c[9,0,-1.0] >= -50951
 R2190: - m[9,0,0] + 11 m[9,0,1] + 5 m[9,0,2] + 9 m[9,1,0] + 11 m[9,1,1]
   + 5 m[9,1,2] - 2 m[9,1,3] - 50000 c[9,0,-1.0] >= -49992
 R2191: - m[9,0,0] + 2 m[9,0,1] + 6649 m[9,0,2] - 6646 m[9,0,3]
   - 6647 m[9,1,1] - 2 m[9,1,2] + 3 m[9,1,3] - 50000 c[9,0,-1.0] >= -56647
 R2192: 3 m[9,0,0] + 3 m[9,0,1] + 7 m[9,0,2] + 7 m[9,0,3] + 4 m[9,1,1]
   - m[9,1,2] - m[9,1,3] - 50000 c[9,0,-1.0] >= -49995
 R2193: 4 m[9,0,0] - 6 m[9,0,1] + 15 m[9,0,2] + 2 m[9,0,3] - m[9,1,0]
   - 8 m[9,1,1] + 16 m[9,1,2] + 6 m[9,1,3] - 50000 c[9,0,-1.0] >= -49999
 R2194: 3 m[9,0,0] - 4 m[9,0,1] - 16 m[9,0,2] - 9 m[9,1,0] + 20 m[9,1,1]
   + 4 m[9,1,2] + 8 m[9,1,3] - 50000 c[9,0,-1.0] >= -50009
 R2195: c[9,1,0.0] + c[9,1,-3.0] + c[9,1,-2.0] + c[9,1,-1.41504]
   + c[9,1,-1.0] = 1
 R2196: - m[9,0,4] - m[9,0,5] - m[9,0,6] - m[9,0,7] - m[9,1,4] - m[9,1,5]
   - m[9,1,6] - m[9,1,7] - 50000 c[9,1,0.0] >= -50000
 R2197: c[9,1,-3.0] = 0
 R2198: - m[9,0,6] - m[9,0,7] - m[9,1,4] - m[9,1,5] - 50000 c[9,1,-2.0]
   >= -50003
 R2199: m[9,0,6] + 2 m[9,1,4] + 3 m[9,1,5] - 50000 c[9,1,-2.0] >= -49997
 R2200: 2 m[9,0,6] + 3 m[9,0,7] + 2 m[9,1,4] + m[9,1,5] - 50000 c[9,1,-2.0]
   >= -49996
 R2201: c[9,1,-1.41504] = 0
 R2202: - m[9,0,4] - 2 m[9,0,5] - 6649 m[9,0,6] + 6645 m[9,0,7]
   - 6645 m[9,1,4] - 4 m[9,1,5] - 2 m[9,1,6] - 3 m[9,1,7]
   - 50000 c[9,1,-1.0] >= -56656
 R2203: - 4 m[9,0,4] - 7 m[9,0,5] + 2 m[9,0,6] - m[9,0,7] - m[9,1,4]
   + 2 m[9,1,5] - 6 m[9,1,6] - 6 m[9,1,7] - 50000 c[9,1,-1.0] >= -50018
 R2204: 1898 m[9,0,4] + 2848 m[9,0,5] + 1901 m[9,0,6] - 6649 m[9,0,7]
   + 6647 m[9,1,4] - 5698 m[9,1,5] + 1899 m[9,1,6] + 2849 m[9,1,7]
   - 50000 c[9,1,-1.0] >= -50951
 R2205: - m[9,0,4] + 11 m[9,0,5] + 5 m[9,0,6] + 9 m[9,1,4] + 11 m[9,1,5]
   + 5 m[9,1,6] - 2 m[9,1,7] - 50000 c[9,1,-1.0] >= -49992
 R2206: - m[9,0,4] + 2 m[9,0,5] + 6649 m[9,0,6] - 6646 m[9,0,7]
   - 6647 m[9,1,5] - 2 m[9,1,6] + 3 m[9,1,7] - 50000 c[9,1,-1.0] >= -56647
 R2207: 3 m[9,0,4] + 3 m[9,0,5] + 7 m[9,0,6] + 7 m[9,0,7] + 4 m[9,1,5]
   - m[9,1,6] - m[9,1,7] - 50000 c[9,1,-1.0] >= -49995
 R2208: 4 m[9,0,4] - 6 m[9,0,5] + 15 m[9,0,6] + 2 m[9,0,7] - m[9,1,4]
   - 8 m[9,1,5] + 16 m[9,1,6] + 6 m[9,1,7] - 50000 c[9,1,-1.0] >= -49999
 R2209: 3 m[9,0,4] - 4 m[9,0,5] - 16 m[9,0,6] - 9 m[9,1,4] + 20 m[9,1,5]
   + 4 m[9,1,6] + 8 m[9,1,7] - 50000 c[9,1,-1.0] >= -50009
 R2210: c[9,2,0.0] + c[9,2,-3.0] + c[9,2,-2.0] + c[9,2,-1.41504]
   + c[9,2,-1.0] = 1
 R2211: - m[9,0,8] - m[9,0,9] - m[9,0,10] - m[9,0,11] - m[9,1,8] - m[9,1,9]
   - m[9,1,10] - m[9,1,11] - 50000 c[9,2,0.0] >= -50000
 R2212: c[9,2,-3.0] = 0
 R2213: - m[9,0,10] - m[9,0,11] - m[9,1,8] - m[9,1,9] - 50000 c[9,2,-2.0]
   >= -50003
 R2214: m[9,0,10] + 2 m[9,1,8] + 3 m[9,1,9] - 50000 c[9,2,-2.0] >= -49997
 R2215: 2 m[9,0,10] + 3 m[9,0,11] + 2 m[9,1,8] + m[9,1,9]
   - 50000 c[9,2,-2.0] >= -49996
 R2216: c[9,2,-1.41504] = 0
 R2217: - m[9,0,8] - 2 m[9,0,9] - 6649 m[9,0,10] + 6645 m[9,0,11]
   - 6645 m[9,1,8] - 4 m[9,1,9] - 2 m[9,1,10] - 3 m[9,1,11]
   - 50000 c[9,2,-1.0] >= -56656
 R2218: - 4 m[9,0,8] - 7 m[9,0,9] + 2 m[9,0,10] - m[9,0,11] - m[9,1,8]
   + 2 m[9,1,9] - 6 m[9,1,10] - 6 m[9,1,11] - 50000 c[9,2,-1.0] >= -50018
 R2219: 1898 m[9,0,8] + 2848 m[9,0,9] + 1901 m[9,0,10] - 6649 m[9,0,11]
   + 6647 m[9,1,8] - 5698 m[9,1,9] + 1899 m[9,1,10] + 2849 m[9,1,11]
   - 50000 c[9,2,-1.0] >= -50951
 R2220: - m[9,0,8] + 11 m[9,0,9] + 5 m[9,0,10] + 9 m[9,1,8] + 11 m[9,1,9]
   + 5 m[9,1,10] - 2 m[9,1,11] - 50000 c[9,2,-1.0] >= -49992
 R2221: - m[9,0,8] + 2 m[9,0,9] + 6649 m[9,0,10] - 6646 m[9,0,11]
   - 6647 m[9,1,9] - 2 m[9,1,10] + 3 m[9,1,11] - 50000 c[9,2,-1.0]
   >= -56647
 R2222: 3 m[9,0,8] + 3 m[9,0,9] + 7 m[9,0,10] + 7 m[9,0,11] + 4 m[9,1,9]
   - m[9,1,10] - m[9,1,11] - 50000 c[9,2,-1.0] >= -49995
 R2223: 4 m[9,0,8] - 6 m[9,0,9] + 15 m[9,0,10] + 2 m[9,0,11] - m[9,1,8]
   - 8 m[9,1,9] + 16 m[9,1,10] + 6 m[9,1,11] - 50000 c[9,2,-1.0] >= -49999
 R2224: 3 m[9,0,8] - 4 m[9,0,9] - 16 m[9,0,10] - 9 m[9,1,8] + 20 m[9,1,9]
   + 4 m[9,1,10] + 8 m[9,1,11] - 50000 c[9,2,-1.0] >= -50009
 R2225: c[9,3,0.0] + c[9,3,-3.0] + c[9,3,-2.0] + c[9,3,-1.41504]
   + c[9,3,-1.0] = 1
 R2226: - m[9,0,12] - m[9,0,13] - m[9,0,14] - m[9,0,15] - m[9,1,12]
   - m[9,1,13] - m[9,1,14] - m[9,1,15] - 50000 c[9,3,0.0] >= -50000
 R2227: c[9,3,-3.0] = 0
 R2228: - m[9,0,14] - m[9,0,15] - m[9,1,12] - m[9,1,13] - 50000 c[9,3,-2.0]
   >= -50003
 R2229: m[9,0,14] + 2 m[9,1,12] + 3 m[9,1,13] - 50000 c[9,3,-2.0]
   >= -49997
 R2230: 2 m[9,0,14] + 3 m[9,0,15] + 2 m[9,1,12] + m[9,1,13]
   - 50000 c[9,3,-2.0] >= -49996
 R2231: c[9,3,-1.41504] = 0
 R2232: - m[9,0,12] - 2 m[9,0,13] - 6649 m[9,0,14] + 6645 m[9,0,15]
   - 6645 m[9,1,12] - 4 m[9,1,13] - 2 m[9,1,14] - 3 m[9,1,15]
   - 50000 c[9,3,-1.0] >= -56656
 R2233: - 4 m[9,0,12] - 7 m[9,0,13] + 2 m[9,0,14] - m[9,0,15] - m[9,1,12]
   + 2 m[9,1,13] - 6 m[9,1,14] - 6 m[9,1,15] - 50000 c[9,3,-1.0] >= -50018
 R2234: 1898 m[9,0,12] + 2848 m[9,0,13] + 1901 m[9,0,14] - 6649 m[9,0,15]
   + 6647 m[9,1,12] - 5698 m[9,1,13] + 1899 m[9,1,14] + 2849 m[9,1,15]
   - 50000 c[9,3,-1.0] >= -50951
 R2235: - m[9,0,12] + 11 m[9,0,13] + 5 m[9,0,14] + 9 m[9,1,12]
   + 11 m[9,1,13] + 5 m[9,1,14] - 2 m[9,1,15] - 50000 c[9,3,-1.0]
   >= -49992
 R2236: - m[9,0,12] + 2 m[9,0,13] + 6649 m[9,0,14] - 6646 m[9,0,15]
   - 6647 m[9,1,13] - 2 m[9,1,14] + 3 m[9,1,15] - 50000 c[9,3,-1.0]
   >= -56647
 R2237: 3 m[9,0,12] + 3 m[9,0,13] + 7 m[9,0,14] + 7 m[9,0,15] + 4 m[9,1,13]
   - m[9,1,14] - m[9,1,15] - 50000 c[9,3,-1.0] >= -49995
 R2238: 4 m[9,0,12] - 6 m[9,0,13] + 15 m[9,0,14] + 2 m[9,0,15] - m[9,1,12]
   - 8 m[9,1,13] + 16 m[9,1,14] + 6 m[9,1,15] - 50000 c[9,3,-1.0]
   >= -49999
 R2239: 3 m[9,0,12] - 4 m[9,0,13] - 16 m[9,0,14] - 9 m[9,1,12]
   + 20 m[9,1,13] + 4 m[9,1,14] + 8 m[9,1,15] - 50000 c[9,3,-1.0]
   >= -50009
 R2240: c[9,4,0.0] + c[9,4,-3.0] + c[9,4,-2.0] + c[9,4,-1.41504]
   + c[9,4,-1.0] = 1
 R2241: - m[9,0,16] - m[9,0,17] - m[9,0,18] - m[9,0,19] - m[9,1,16]
   - m[9,1,17] - m[9,1,18] - m[9,1,19] - 50000 c[9,4,0.0] >= -50000
 R2242: c[9,4,-3.0] = 0
 R2243: - m[9,0,18] - m[9,0,19] - m[9,1,16] - m[9,1,17] - 50000 c[9,4,-2.0]
   >= -50003
 R2244: m[9,0,18] + 2 m[9,1,16] + 3 m[9,1,17] - 50000 c[9,4,-2.0]
   >= -49997
 R2245: 2 m[9,0,18] + 3 m[9,0,19] + 2 m[9,1,16] + m[9,1,17]
   - 50000 c[9,4,-2.0] >= -49996
 R2246: c[9,4,-1.41504] = 0
 R2247: - m[9,0,16] - 2 m[9,0,17] - 6649 m[9,0,18] + 6645 m[9,0,19]
   - 6645 m[9,1,16] - 4 m[9,1,17] - 2 m[9,1,18] - 3 m[9,1,19]
   - 50000 c[9,4,-1.0] >= -56656
 R2248: - 4 m[9,0,16] - 7 m[9,0,17] + 2 m[9,0,18] - m[9,0,19] - m[9,1,16]
   + 2 m[9,1,17] - 6 m[9,1,18] - 6 m[9,1,19] - 50000 c[9,4,-1.0] >= -50018
 R2249: 1898 m[9,0,16] + 2848 m[9,0,17] + 1901 m[9,0,18] - 6649 m[9,0,19]
   + 6647 m[9,1,16] - 5698 m[9,1,17] + 1899 m[9,1,18] + 2849 m[9,1,19]
   - 50000 c[9,4,-1.0] >= -50951
 R2250: - m[9,0,16] + 11 m[9,0,17] + 5 m[9,0,18] + 9 m[9,1,16]
   + 11 m[9,1,17] + 5 m[9,1,18] - 2 m[9,1,19] - 50000 c[9,4,-1.0]
   >= -49992
 R2251: - m[9,0,16] + 2 m[9,0,17] + 6649 m[9,0,18] - 6646 m[9,0,19]
   - 6647 m[9,1,17] - 2 m[9,1,18] + 3 m[9,1,19] - 50000 c[9,4,-1.0]
   >= -56647
 R2252: 3 m[9,0,16] + 3 m[9,0,17] + 7 m[9,0,18] + 7 m[9,0,19] + 4 m[9,1,17]
   - m[9,1,18] - m[9,1,19] - 50000 c[9,4,-1.0] >= -49995
 R2253: 4 m[9,0,16] - 6 m[9,0,17] + 15 m[9,0,18] + 2 m[9,0,19] - m[9,1,16]
   - 8 m[9,1,17] + 16 m[9,1,18] + 6 m[9,1,19] - 50000 c[9,4,-1.0]
   >= -49999
 R2254: 3 m[9,0,16] - 4 m[9,0,17] - 16 m[9,0,18] - 9 m[9,1,16]
   + 20 m[9,1,17] + 4 m[9,1,18] + 8 m[9,1,19] - 50000 c[9,4,-1.0]
   >= -50009
 R2255: c[9,5,0.0] + c[9,5,-3.0] + c[9,5,-2.0] + c[9,5,-1.41504]
   + c[9,5,-1.0] = 1
 R2256: - m[9,0,20] - m[9,0,21] - m[9,0,22] - m[9,0,23] - m[9,1,20]
   - m[9,1,21] - m[9,1,22] - m[9,1,23] - 50000 c[9,5,0.0] >= -50000
 R2257: c[9,5,-3.0] = 0
 R2258: - m[9,0,22] - m[9,0,23] - m[9,1,20] - m[9,1,21] - 50000 c[9,5,-2.0]
   >= -50003
 R2259: m[9,0,22] + 2 m[9,1,20] + 3 m[9,1,21] - 50000 c[9,5,-2.0]
   >= -49997
 R2260: 2 m[9,0,22] + 3 m[9,0,23] + 2 m[9,1,20] + m[9,1,21]
   - 50000 c[9,5,-2.0] >= -49996
 R2261: c[9,5,-1.41504] = 0
 R2262: - m[9,0,20] - 2 m[9,0,21] - 6649 m[9,0,22] + 6645 m[9,0,23]
   - 6645 m[9,1,20] - 4 m[9,1,21] - 2 m[9,1,22] - 3 m[9,1,23]
   - 50000 c[9,5,-1.0] >= -56656
 R2263: - 4 m[9,0,20] - 7 m[9,0,21] + 2 m[9,0,22] - m[9,0,23] - m[9,1,20]
   + 2 m[9,1,21] - 6 m[9,1,22] - 6 m[9,1,23] - 50000 c[9,5,-1.0] >= -50018
 R2264: 1898 m[9,0,20] + 2848 m[9,0,21] + 1901 m[9,0,22] - 6649 m[9,0,23]
   + 6647 m[9,1,20] - 5698 m[9,1,21] + 1899 m[9,1,22] + 2849 m[9,1,23]
   - 50000 c[9,5,-1.0] >= -50951
 R2265: - m[9,0,20] + 11 m[9,0,21] + 5 m[9,0,22] + 9 m[9,1,20]
   + 11 m[9,1,21] + 5 m[9,1,22] - 2 m[9,1,23] - 50000 c[9,5,-1.0]
   >= -49992
 R2266: - m[9,0,20] + 2 m[9,0,21] + 6649 m[9,0,22] - 6646 m[9,0,23]
   - 6647 m[9,1,21] - 2 m[9,1,22] + 3 m[9,1,23] - 50000 c[9,5,-1.0]
   >= -56647
 R2267: 3 m[9,0,20] + 3 m[9,0,21] + 7 m[9,0,22] + 7 m[9,0,23] + 4 m[9,1,21]
   - m[9,1,22] - m[9,1,23] - 50000 c[9,5,-1.0] >= -49995
 R2268: 4 m[9,0,20] - 6 m[9,0,21] + 15 m[9,0,22] + 2 m[9,0,23] - m[9,1,20]
   - 8 m[9,1,21] + 16 m[9,1,22] + 6 m[9,1,23] - 50000 c[9,5,-1.0]
   >= -49999
 R2269: 3 m[9,0,20] - 4 m[9,0,21] - 16 m[9,0,22] - 9 m[9,1,20]
   + 20 m[9,1,21] + 4 m[9,1,22] + 8 m[9,1,23] - 50000 c[9,5,-1.0]
   >= -50009
 R2270: c[9,6,0.0] + c[9,6,-3.0] + c[9,6,-2.0] + c[9,6,-1.41504]
   + c[9,6,-1.0] = 1
 R2271: - m[9,0,24] - m[9,0,25] - m[9,0,26] - m[9,0,27] - m[9,1,24]
   - m[9,1,25] - m[9,1,26] - m[9,1,27] - 50000 c[9,6,0.0] >= -50000
 R2272: c[9,6,-3.0] = 0
 R2273: - m[9,0,26] - m[9,0,27] - m[9,1,24] - m[9,1,25] - 50000 c[9,6,-2.0]
   >= -50003
 R2274: m[9,0,26] + 2 m[9,1,24] + 3 m[9,1,25] - 50000 c[9,6,-2.0]
   >= -49997
 R2275: 2 m[9,0,26] + 3 m[9,0,27] + 2 m[9,1,24] + m[9,1,25]
   - 50000 c[9,6,-2.0] >= -49996
 R2276: c[9,6,-1.41504] = 0
 R2277: - m[9,0,24] - 2 m[9,0,25] - 6649 m[9,0,26] + 6645 m[9,0,27]
   - 6645 m[9,1,24] - 4 m[9,1,25] - 2 m[9,1,26] - 3 m[9,1,27]
   - 50000 c[9,6,-1.0] >= -56656
 R2278: - 4 m[9,0,24] - 7 m[9,0,25] + 2 m[9,0,26] - m[9,0,27] - m[9,1,24]
   + 2 m[9,1,25] - 6 m[9,1,26] - 6 m[9,1,27] - 50000 c[9,6,-1.0] >= -50018
 R2279: 1898 m[9,0,24] + 2848 m[9,0,25] + 1901 m[9,0,26] - 6649 m[9,0,27]
   + 6647 m[9,1,24] - 5698 m[9,1,25] + 1899 m[9,1,26] + 2849 m[9,1,27]
   - 50000 c[9,6,-1.0] >= -50951
 R2280: - m[9,0,24] + 11 m[9,0,25] + 5 m[9,0,26] + 9 m[9,1,24]
   + 11 m[9,1,25] + 5 m[9,1,26] - 2 m[9,1,27] - 50000 c[9,6,-1.0]
   >= -49992
 R2281: - m[9,0,24] + 2 m[9,0,25] + 6649 m[9,0,26] - 6646 m[9,0,27]
   - 6647 m[9,1,25] - 2 m[9,1,26] + 3 m[9,1,27] - 50000 c[9,6,-1.0]
   >= -56647
 R2282: 3 m[9,0,24] + 3 m[9,0,25] + 7 m[9,0,26] + 7 m[9,0,27] + 4 m[9,1,25]
   - m[9,1,26] - m[9,1,27] - 50000 c[9,6,-1.0] >= -49995
 R2283: 4 m[9,0,24] - 6 m[9,0,25] + 15 m[9,0,26] + 2 m[9,0,27] - m[9,1,24]
   - 8 m[9,1,25] + 16 m[9,1,26] + 6 m[9,1,27] - 50000 c[9,6,-1.0]
   >= -49999
 R2284: 3 m[9,0,24] - 4 m[9,0,25] - 16 m[9,0,26] - 9 m[9,1,24]
   + 20 m[9,1,25] + 4 m[9,1,26] + 8 m[9,1,27] - 50000 c[9,6,-1.0]
   >= -50009
 R2285: c[9,7,0.0] + c[9,7,-3.0] + c[9,7,-2.0] + c[9,7,-1.41504]
   + c[9,7,-1.0] = 1
 R2286: - m[9,0,28] - m[9,0,29] - m[9,0,30] - m[9,0,31] - m[9,1,28]
   - m[9,1,29] - m[9,1,30] - m[9,1,31] - 50000 c[9,7,0.0] >= -50000
 R2287: c[9,7,-3.0] = 0
 R2288: - m[9,0,30] - m[9,0,31] - m[9,1,28] - m[9,1,29] - 50000 c[9,7,-2.0]
   >= -50003
 R2289: m[9,0,30] + 2 m[9,1,28] + 3 m[9,1,29] - 50000 c[9,7,-2.0]
   >= -49997
 R2290: 2 m[9,0,30] + 3 m[9,0,31] + 2 m[9,1,28] + m[9,1,29]
   - 50000 c[9,7,-2.0] >= -49996
 R2291: c[9,7,-1.41504] = 0
 R2292: - m[9,0,28] - 2 m[9,0,29] - 6649 m[9,0,30] + 6645 m[9,0,31]
   - 6645 m[9,1,28] - 4 m[9,1,29] - 2 m[9,1,30] - 3 m[9,1,31]
   - 50000 c[9,7,-1.0] >= -56656
 R2293: - 4 m[9,0,28] - 7 m[9,0,29] + 2 m[9,0,30] - m[9,0,31] - m[9,1,28]
   + 2 m[9,1,29] - 6 m[9,1,30] - 6 m[9,1,31] - 50000 c[9,7,-1.0] >= -50018
 R2294: 1898 m[9,0,28] + 2848 m[9,0,29] + 1901 m[9,0,30] - 6649 m[9,0,31]
   + 6647 m[9,1,28] - 5698 m[9,1,29] + 1899 m[9,1,30] + 2849 m[9,1,31]
   - 50000 c[9,7,-1.0] >= -50951
 R2295: - m[9,0,28] + 11 m[9,0,29] + 5 m[9,0,30] + 9 m[9,1,28]
   + 11 m[9,1,29] + 5 m[9,1,30] - 2 m[9,1,31] - 50000 c[9,7,-1.0]
   >= -49992
 R2296: - m[9,0,28] + 2 m[9,0,29] + 6649 m[9,0,30] - 6646 m[9,0,31]
   - 6647 m[9,1,29] - 2 m[9,1,30] + 3 m[9,1,31] - 50000 c[9,7,-1.0]
   >= -56647
 R2297: 3 m[9,0,28] + 3 m[9,0,29] + 7 m[9,0,30] + 7 m[9,0,31] + 4 m[9,1,29]
   - m[9,1,30] - m[9,1,31] - 50000 c[9,7,-1.0] >= -49995
 R2298: 4 m[9,0,28] - 6 m[9,0,29] + 15 m[9,0,30] + 2 m[9,0,31] - m[9,1,28]
   - 8 m[9,1,29] + 16 m[9,1,30] + 6 m[9,1,31] - 50000 c[9,7,-1.0]
   >= -49999
 R2299: 3 m[9,0,28] - 4 m[9,0,29] - 16 m[9,0,30] - 9 m[9,1,28]
   + 20 m[9,1,29] + 4 m[9,1,30] + 8 m[9,1,31] - 50000 c[9,7,-1.0]
   >= -50009
 R2300: c[9,8,0.0] + c[9,8,-3.0] + c[9,8,-2.0] + c[9,8,-1.41504]
   + c[9,8,-1.0] = 1
 R2301: - m[9,0,32] - m[9,0,33] - m[9,0,34] - m[9,0,35] - m[9,1,32]
   - m[9,1,33] - m[9,1,34] - m[9,1,35] - 50000 c[9,8,0.0] >= -50000
 R2302: c[9,8,-3.0] = 0
 R2303: - m[9,0,34] - m[9,0,35] - m[9,1,32] - m[9,1,33] - 50000 c[9,8,-2.0]
   >= -50003
 R2304: m[9,0,34] + 2 m[9,1,32] + 3 m[9,1,33] - 50000 c[9,8,-2.0]
   >= -49997
 R2305: 2 m[9,0,34] + 3 m[9,0,35] + 2 m[9,1,32] + m[9,1,33]
   - 50000 c[9,8,-2.0] >= -49996
 R2306: c[9,8,-1.41504] = 0
 R2307: - m[9,0,32] - 2 m[9,0,33] - 6649 m[9,0,34] + 6645 m[9,0,35]
   - 6645 m[9,1,32] - 4 m[9,1,33] - 2 m[9,1,34] - 3 m[9,1,35]
   - 50000 c[9,8,-1.0] >= -56656
 R2308: - 4 m[9,0,32] - 7 m[9,0,33] + 2 m[9,0,34] - m[9,0,35] - m[9,1,32]
   + 2 m[9,1,33] - 6 m[9,1,34] - 6 m[9,1,35] - 50000 c[9,8,-1.0] >= -50018
 R2309: 1898 m[9,0,32] + 2848 m[9,0,33] + 1901 m[9,0,34] - 6649 m[9,0,35]
   + 6647 m[9,1,32] - 5698 m[9,1,33] + 1899 m[9,1,34] + 2849 m[9,1,35]
   - 50000 c[9,8,-1.0] >= -50951
 R2310: - m[9,0,32] + 11 m[9,0,33] + 5 m[9,0,34] + 9 m[9,1,32]
   + 11 m[9,1,33] + 5 m[9,1,34] - 2 m[9,1,35] - 50000 c[9,8,-1.0]
   >= -49992
 R2311: - m[9,0,32] + 2 m[9,0,33] + 6649 m[9,0,34] - 6646 m[9,0,35]
   - 6647 m[9,1,33] - 2 m[9,1,34] + 3 m[9,1,35] - 50000 c[9,8,-1.0]
   >= -56647
 R2312: 3 m[9,0,32] + 3 m[9,0,33] + 7 m[9,0,34] + 7 m[9,0,35] + 4 m[9,1,33]
   - m[9,1,34] - m[9,1,35] - 50000 c[9,8,-1.0] >= -49995
 R2313: 4 m[9,0,32] - 6 m[9,0,33] + 15 m[9,0,34] + 2 m[9,0,35] - m[9,1,32]
   - 8 m[9,1,33] + 16 m[9,1,34] + 6 m[9,1,35] - 50000 c[9,8,-1.0]
   >= -49999
 R2314: 3 m[9,0,32] - 4 m[9,0,33] - 16 m[9,0,34] - 9 m[9,1,32]
   + 20 m[9,1,33] + 4 m[9,1,34] + 8 m[9,1,35] - 50000 c[9,8,-1.0]
   >= -50009
 R2315: c[9,9,0.0] + c[9,9,-3.0] + c[9,9,-2.0] + c[9,9,-1.41504]
   + c[9,9,-1.0] = 1
 R2316: - m[9,0,36] - m[9,0,37] - m[9,0,38] - m[9,0,39] - m[9,1,36]
   - m[9,1,37] - m[9,1,38] - m[9,1,39] - 50000 c[9,9,0.0] >= -50000
 R2317: c[9,9,-3.0] = 0
 R2318: - m[9,0,38] - m[9,0,39] - m[9,1,36] - m[9,1,37] - 50000 c[9,9,-2.0]
   >= -50003
 R2319: m[9,0,38] + 2 m[9,1,36] + 3 m[9,1,37] - 50000 c[9,9,-2.0]
   >= -49997
 R2320: 2 m[9,0,38] + 3 m[9,0,39] + 2 m[9,1,36] + m[9,1,37]
   - 50000 c[9,9,-2.0] >= -49996
 R2321: c[9,9,-1.41504] = 0
 R2322: - m[9,0,36] - 2 m[9,0,37] - 6649 m[9,0,38] + 6645 m[9,0,39]
   - 6645 m[9,1,36] - 4 m[9,1,37] - 2 m[9,1,38] - 3 m[9,1,39]
   - 50000 c[9,9,-1.0] >= -56656
 R2323: - 4 m[9,0,36] - 7 m[9,0,37] + 2 m[9,0,38] - m[9,0,39] - m[9,1,36]
   + 2 m[9,1,37] - 6 m[9,1,38] - 6 m[9,1,39] - 50000 c[9,9,-1.0] >= -50018
 R2324: 1898 m[9,0,36] + 2848 m[9,0,37] + 1901 m[9,0,38] - 6649 m[9,0,39]
   + 6647 m[9,1,36] - 5698 m[9,1,37] + 1899 m[9,1,38] + 2849 m[9,1,39]
   - 50000 c[9,9,-1.0] >= -50951
 R2325: - m[9,0,36] + 11 m[9,0,37] + 5 m[9,0,38] + 9 m[9,1,36]
   + 11 m[9,1,37] + 5 m[9,1,38] - 2 m[9,1,39] - 50000 c[9,9,-1.0]
   >= -49992
 R2326: - m[9,0,36] + 2 m[9,0,37] + 6649 m[9,0,38] - 6646 m[9,0,39]
   - 6647 m[9,1,37] - 2 m[9,1,38] + 3 m[9,1,39] - 50000 c[9,9,-1.0]
   >= -56647
 R2327: 3 m[9,0,36] + 3 m[9,0,37] + 7 m[9,0,38] + 7 m[9,0,39] + 4 m[9,1,37]
   - m[9,1,38] - m[9,1,39] - 50000 c[9,9,-1.0] >= -49995
 R2328: 4 m[9,0,36] - 6 m[9,0,37] + 15 m[9,0,38] + 2 m[9,0,39] - m[9,1,36]
   - 8 m[9,1,37] + 16 m[9,1,38] + 6 m[9,1,39] - 50000 c[9,9,-1.0]
   >= -49999
 R2329: 3 m[9,0,36] - 4 m[9,0,37] - 16 m[9,0,38] - 9 m[9,1,36]
   + 20 m[9,1,37] + 4 m[9,1,38] + 8 m[9,1,39] - 50000 c[9,9,-1.0]
   >= -50009
 R2330: c[9,10,0.0] + c[9,10,-3.0] + c[9,10,-2.0] + c[9,10,-1.41504]
   + c[9,10,-1.0] = 1
 R2331: - m[9,0,40] - m[9,0,41] - m[9,0,42] - m[9,0,43] - m[9,1,40]
   - m[9,1,41] - m[9,1,42] - m[9,1,43] - 50000 c[9,10,0.0] >= -50000
 R2332: c[9,10,-3.0] = 0
 R2333: - m[9,0,42] - m[9,0,43] - m[9,1,40] - m[9,1,41]
   - 50000 c[9,10,-2.0] >= -50003
 R2334: m[9,0,42] + 2 m[9,1,40] + 3 m[9,1,41] - 50000 c[9,10,-2.0]
   >= -49997
 R2335: 2 m[9,0,42] + 3 m[9,0,43] + 2 m[9,1,40] + m[9,1,41]
   - 50000 c[9,10,-2.0] >= -49996
 R2336: c[9,10,-1.41504] = 0
 R2337: - m[9,0,40] - 2 m[9,0,41] - 6649 m[9,0,42] + 6645 m[9,0,43]
   - 6645 m[9,1,40] - 4 m[9,1,41] - 2 m[9,1,42] - 3 m[9,1,43]
   - 50000 c[9,10,-1.0] >= -56656
 R2338: - 4 m[9,0,40] - 7 m[9,0,41] + 2 m[9,0,42] - m[9,0,43] - m[9,1,40]
   + 2 m[9,1,41] - 6 m[9,1,42] - 6 m[9,1,43] - 50000 c[9,10,-1.0]
   >= -50018
 R2339: 1898 m[9,0,40] + 2848 m[9,0,41] + 1901 m[9,0,42] - 6649 m[9,0,43]
   + 6647 m[9,1,40] - 5698 m[9,1,41] + 1899 m[9,1,42] + 2849 m[9,1,43]
   - 50000 c[9,10,-1.0] >= -50951
 R2340: - m[9,0,40] + 11 m[9,0,41] + 5 m[9,0,42] + 9 m[9,1,40]
   + 11 m[9,1,41] + 5 m[9,1,42] - 2 m[9,1,43] - 50000 c[9,10,-1.0]
   >= -49992
 R2341: - m[9,0,40] + 2 m[9,0,41] + 6649 m[9,0,42] - 6646 m[9,0,43]
   - 6647 m[9,1,41] - 2 m[9,1,42] + 3 m[9,1,43] - 50000 c[9,10,-1.0]
   >= -56647
 R2342: 3 m[9,0,40] + 3 m[9,0,41] + 7 m[9,0,42] + 7 m[9,0,43] + 4 m[9,1,41]
   - m[9,1,42] - m[9,1,43] - 50000 c[9,10,-1.0] >= -49995
 R2343: 4 m[9,0,40] - 6 m[9,0,41] + 15 m[9,0,42] + 2 m[9,0,43] - m[9,1,40]
   - 8 m[9,1,41] + 16 m[9,1,42] + 6 m[9,1,43] - 50000 c[9,10,-1.0]
   >= -49999
 R2344: 3 m[9,0,40] - 4 m[9,0,41] - 16 m[9,0,42] - 9 m[9,1,40]
   + 20 m[9,1,41] + 4 m[9,1,42] + 8 m[9,1,43] - 50000 c[9,10,-1.0]
   >= -50009
 R2345: c[9,11,0.0] + c[9,11,-3.0] + c[9,11,-2.0] + c[9,11,-1.41504]
   + c[9,11,-1.0] = 1
 R2346: - m[9,0,44] - m[9,0,45] - m[9,0,46] - m[9,0,47] - m[9,1,44]
   - m[9,1,45] - m[9,1,46] - m[9,1,47] - 50000 c[9,11,0.0] >= -50000
 R2347: c[9,11,-3.0] = 0
 R2348: - m[9,0,46] - m[9,0,47] - m[9,1,44] - m[9,1,45]
   - 50000 c[9,11,-2.0] >= -50003
 R2349: m[9,0,46] + 2 m[9,1,44] + 3 m[9,1,45] - 50000 c[9,11,-2.0]
   >= -49997
 R2350: 2 m[9,0,46] + 3 m[9,0,47] + 2 m[9,1,44] + m[9,1,45]
   - 50000 c[9,11,-2.0] >= -49996
 R2351: c[9,11,-1.41504] = 0
 R2352: - m[9,0,44] - 2 m[9,0,45] - 6649 m[9,0,46] + 6645 m[9,0,47]
   - 6645 m[9,1,44] - 4 m[9,1,45] - 2 m[9,1,46] - 3 m[9,1,47]
   - 50000 c[9,11,-1.0] >= -56656
 R2353: - 4 m[9,0,44] - 7 m[9,0,45] + 2 m[9,0,46] - m[9,0,47] - m[9,1,44]
   + 2 m[9,1,45] - 6 m[9,1,46] - 6 m[9,1,47] - 50000 c[9,11,-1.0]
   >= -50018
 R2354: 1898 m[9,0,44] + 2848 m[9,0,45] + 1901 m[9,0,46] - 6649 m[9,0,47]
   + 6647 m[9,1,44] - 5698 m[9,1,45] + 1899 m[9,1,46] + 2849 m[9,1,47]
   - 50000 c[9,11,-1.0] >= -50951
 R2355: - m[9,0,44] + 11 m[9,0,45] + 5 m[9,0,46] + 9 m[9,1,44]
   + 11 m[9,1,45] + 5 m[9,1,46] - 2 m[9,1,47] - 50000 c[9,11,-1.0]
   >= -49992
 R2356: - m[9,0,44] + 2 m[9,0,45] + 6649 m[9,0,46] - 6646 m[9,0,47]
   - 6647 m[9,1,45] - 2 m[9,1,46] + 3 m[9,1,47] - 50000 c[9,11,-1.0]
   >= -56647
 R2357: 3 m[9,0,44] + 3 m[9,0,45] + 7 m[9,0,46] + 7 m[9,0,47] + 4 m[9,1,45]
   - m[9,1,46] - m[9,1,47] - 50000 c[9,11,-1.0] >= -49995
 R2358: 4 m[9,0,44] - 6 m[9,0,45] + 15 m[9,0,46] + 2 m[9,0,47] - m[9,1,44]
   - 8 m[9,1,45] + 16 m[9,1,46] + 6 m[9,1,47] - 50000 c[9,11,-1.0]
   >= -49999
 R2359: 3 m[9,0,44] - 4 m[9,0,45] - 16 m[9,0,46] - 9 m[9,1,44]
   + 20 m[9,1,45] + 4 m[9,1,46] + 8 m[9,1,47] - 50000 c[9,11,-1.0]
   >= -50009
 R2360: c[9,12,0.0] + c[9,12,-3.0] + c[9,12,-2.0] + c[9,12,-1.41504]
   + c[9,12,-1.0] = 1
 R2361: c[9,12,0.0] = 0
 R2362: m[9,0,50] + m[9,1,48] - m[9,1,51] - 50000 c[9,12,-3.0] >= -50000
 R2363: - m[9,0,50] - m[9,1,48] - m[9,1,51] - 50000 c[9,12,-3.0] >= -50002
 R2364: m[9,0,50] - m[9,1,48] + m[9,1,51] - 50000 c[9,12,-3.0] >= -50000
 R2365: - m[9,0,50] + m[9,1,48] + m[9,1,51] - 50000 c[9,12,-3.0] >= -50000
 R2366: c[9,12,-2.0] = 0
 R2367: c[9,12,-1.41504] = 0
 R2368: c[9,12,-1.0] = 0
 R2369: c[9,13,0.0] + c[9,13,-3.0] + c[9,13,-2.0] + c[9,13,-1.41504]
   + c[9,13,-1.0] = 1
 R2370: - m[9,0,52] - m[9,0,53] - m[9,0,54] - m[9,0,55] - m[9,1,52]
   - m[9,1,53] - m[9,1,54] - m[9,1,55] - 50000 c[9,13,0.0] >= -50000
 R2371: c[9,13,-3.0] = 0
 R2372: - m[9,0,54] - m[9,0,55] - m[9,1,52] - m[9,1,53]
   - 50000 c[9,13,-2.0] >= -50003
 R2373: m[9,0,54] + 2 m[9,1,52] + 3 m[9,1,53] - 50000 c[9,13,-2.0]
   >= -49997
 R2374: 2 m[9,0,54] + 3 m[9,0,55] + 2 m[9,1,52] + m[9,1,53]
   - 50000 c[9,13,-2.0] >= -49996
 R2375: c[9,13,-1.41504] = 0
 R2376: - m[9,0,52] - 2 m[9,0,53] - 6649 m[9,0,54] + 6645 m[9,0,55]
   - 6645 m[9,1,52] - 4 m[9,1,53] - 2 m[9,1,54] - 3 m[9,1,55]
   - 50000 c[9,13,-1.0] >= -56656
 R2377: - 4 m[9,0,52] - 7 m[9,0,53] + 2 m[9,0,54] - m[9,0,55] - m[9,1,52]
   + 2 m[9,1,53] - 6 m[9,1,54] - 6 m[9,1,55] - 50000 c[9,13,-1.0]
   >= -50018
 R2378: 1898 m[9,0,52] + 2848 m[9,0,53] + 1901 m[9,0,54] - 6649 m[9,0,55]
   + 6647 m[9,1,52] - 5698 m[9,1,53] + 1899 m[9,1,54] + 2849 m[9,1,55]
   - 50000 c[9,13,-1.0] >= -50951
 R2379: - m[9,0,52] + 11 m[9,0,53] + 5 m[9,0,54] + 9 m[9,1,52]
   + 11 m[9,1,53] + 5 m[9,1,54] - 2 m[9,1,55] - 50000 c[9,13,-1.0]
   >= -49992
 R2380: - m[9,0,52] + 2 m[9,0,53] + 6649 m[9,0,54] - 6646 m[9,0,55]
   - 6647 m[9,1,53] - 2 m[9,1,54] + 3 m[9,1,55] - 50000 c[9,13,-1.0]
   >= -56647
 R2381: 3 m[9,0,52] + 3 m[9,0,53] + 7 m[9,0,54] + 7 m[9,0,55] + 4 m[9,1,53]
   - m[9,1,54] - m[9,1,55] - 50000 c[9,13,-1.0] >= -49995
 R2382: 4 m[9,0,52] - 6 m[9,0,53] + 15 m[9,0,54] + 2 m[9,0,55] - m[9,1,52]
   - 8 m[9,1,53] + 16 m[9,1,54] + 6 m[9,1,55] - 50000 c[9,13,-1.0]
   >= -49999
 R2383: 3 m[9,0,52] - 4 m[9,0,53] - 16 m[9,0,54] - 9 m[9,1,52]
   + 20 m[9,1,53] + 4 m[9,1,54] + 8 m[9,1,55] - 50000 c[9,13,-1.0]
   >= -50009
 R2384: c[9,14,0.0] + c[9,14,-3.0] + c[9,14,-2.0] + c[9,14,-1.41504]
   + c[9,14,-1.0] = 1
 R2385: c[9,14,0.0] = 0
 R2386: c[9,14,-3.0] = 0
 R2387: - m[9,0,57] - 2 m[9,0,58] + 3 m[9,1,57] + 2 m[9,1,58] + m[9,1,59]
   - 50000 c[9,14,-2.0] >= -50000
 R2388: - m[9,0,57] + 2 m[9,0,58] - 3 m[9,1,57] + 2 m[9,1,58] - m[9,1,59]
   - 50000 c[9,14,-2.0] >= -50002
 R2389: m[9,0,57] + 2 m[9,0,58] + 3 m[9,1,57] - 2 m[9,1,58] - m[9,1,59]
   - 50000 c[9,14,-2.0] >= -50000
 R2390: m[9,0,57] - 2 m[9,0,58] - 3 m[9,1,57] - 2 m[9,1,58] + m[9,1,59]
   - 50000 c[9,14,-2.0] >= -50004
 R2391: c[9,14,-1.41504] = 0
 R2392: c[9,14,-1.0] = 0
 R2393: c[9,15,0.0] + c[9,15,-3.0] + c[9,15,-2.0] + c[9,15,-1.41504]
   + c[9,15,-1.0] = 1
 R2394: - m[9,0,60] - m[9,0,61] - m[9,0,62] - m[9,0,63] - m[9,1,60]
   - m[9,1,61] - m[9,1,62] - m[9,1,63] - 50000 c[9,15,0.0] >= -50000
 R2395: c[9,15,-3.0] = 0
 R2396: - m[9,0,62] - m[9,0,63] - m[9,1,60] - m[9,1,61]
   - 50000 c[9,15,-2.0] >= -50003
 R2397: m[9,0,62] + 2 m[9,1,60] + 3 m[9,1,61] - 50000 c[9,15,-2.0]
   >= -49997
 R2398: 2 m[9,0,62] + 3 m[9,0,63] + 2 m[9,1,60] + m[9,1,61]
   - 50000 c[9,15,-2.0] >= -49996
 R2399: c[9,15,-1.41504] = 0
 R2400: - m[9,0,60] - 2 m[9,0,61] - 6649 m[9,0,62] + 6645 m[9,0,63]
   - 6645 m[9,1,60] - 4 m[9,1,61] - 2 m[9,1,62] - 3 m[9,1,63]
   - 50000 c[9,15,-1.0] >= -56656
 R2401: - 4 m[9,0,60] - 7 m[9,0,61] + 2 m[9,0,62] - m[9,0,63] - m[9,1,60]
   + 2 m[9,1,61] - 6 m[9,1,62] - 6 m[9,1,63] - 50000 c[9,15,-1.0]
   >= -50018
 R2402: 1898 m[9,0,60] + 2848 m[9,0,61] + 1901 m[9,0,62] - 6649 m[9,0,63]
   + 6647 m[9,1,60] - 5698 m[9,1,61] + 1899 m[9,1,62] + 2849 m[9,1,63]
   - 50000 c[9,15,-1.0] >= -50951
 R2403: - m[9,0,60] + 11 m[9,0,61] + 5 m[9,0,62] + 9 m[9,1,60]
   + 11 m[9,1,61] + 5 m[9,1,62] - 2 m[9,1,63] - 50000 c[9,15,-1.0]
   >= -49992
 R2404: - m[9,0,60] + 2 m[9,0,61] + 6649 m[9,0,62] - 6646 m[9,0,63]
   - 6647 m[9,1,61] - 2 m[9,1,62] + 3 m[9,1,63] - 50000 c[9,15,-1.0]
   >= -56647
 R2405: 3 m[9,0,60] + 3 m[9,0,61] + 7 m[9,0,62] + 7 m[9,0,63] + 4 m[9,1,61]
   - m[9,1,62] - m[9,1,63] - 50000 c[9,15,-1.0] >= -49995
 R2406: 4 m[9,0,60] - 6 m[9,0,61] + 15 m[9,0,62] + 2 m[9,0,63] - m[9,1,60]
   - 8 m[9,1,61] + 16 m[9,1,62] + 6 m[9,1,63] - 50000 c[9,15,-1.0]
   >= -49999
 R2407: 3 m[9,0,60] - 4 m[9,0,61] - 16 m[9,0,62] - 9 m[9,1,60]
   + 20 m[9,1,61] + 4 m[9,1,62] + 8 m[9,1,63] - 50000 c[9,15,-1.0]
   >= -50009
 R2408: c[10,0,0.0] + c[10,0,-3.0] + c[10,0,-2.0] + c[10,0,-1.41504]
   + c[10,0,-1.0] = 1
 R2409: - m[10,0,0] - m[10,0,1] - m[10,0,2] - m[10,0,3] - m[10,1,0]
   - m[10,1,1] - m[10,1,2] - m[10,1,3] - 50000 c[10,0,0.0] >= -50000
 R2410: c[10,0,-3.0] = 0
 R2411: - m[10,0,2] - m[10,0,3] - m[10,1,0] - m[10,1,1]
   - 50000 c[10,0,-2.0] >= -50003
 R2412: m[10,0,2] + 2 m[10,1,0] + 3 m[10,1,1] - 50000 c[10,0,-2.0]
   >= -49997
 R2413: 2 m[10,0,2] + 3 m[10,0,3] + 2 m[10,1,0] + m[10,1,1]
   - 50000 c[10,0,-2.0] >= -49996
 R2414: c[10,0,-1.41504] = 0
 R2415: - m[10,0,0] - 2 m[10,0,1] - 6649 m[10,0,2] + 6645 m[10,0,3]
   - 6645 m[10,1,0] - 4 m[10,1,1] - 2 m[10,1,2] - 3 m[10,1,3]
   - 50000 c[10,0,-1.0] >= -56656
 R2416: - 4 m[10,0,0] - 7 m[10,0,1] + 2 m[10,0,2] - m[10,0,3] - m[10,1,0]
   + 2 m[10,1,1] - 6 m[10,1,2] - 6 m[10,1,3] - 50000 c[10,0,-1.0]
   >= -50018
 R2417: 1898 m[10,0,0] + 2848 m[10,0,1] + 1901 m[10,0,2] - 6649 m[10,0,3]
   + 6647 m[10,1,0] - 5698 m[10,1,1] + 1899 m[10,1,2] + 2849 m[10,1,3]
   - 50000 c[10,0,-1.0] >= -50951
 R2418: - m[10,0,0] + 11 m[10,0,1] + 5 m[10,0,2] + 9 m[10,1,0]
   + 11 m[10,1,1] + 5 m[10,1,2] - 2 m[10,1,3] - 50000 c[10,0,-1.0]
   >= -49992
 R2419: - m[10,0,0] + 2 m[10,0,1] + 6649 m[10,0,2] - 6646 m[10,0,3]
   - 6647 m[10,1,1] - 2 m[10,1,2] + 3 m[10,1,3] - 50000 c[10,0,-1.0]
   >= -56647
 R2420: 3 m[10,0,0] + 3 m[10,0,1] + 7 m[10,0,2] + 7 m[10,0,3] + 4 m[10,1,1]
   - m[10,1,2] - m[10,1,3] - 50000 c[10,0,-1.0] >= -49995
 R2421: 4 m[10,0,0] - 6 m[10,0,1] + 15 m[10,0,2] + 2 m[10,0,3] - m[10,1,0]
   - 8 m[10,1,1] + 16 m[10,1,2] + 6 m[10,1,3] - 50000 c[10,0,-1.0]
   >= -49999
 R2422: 3 m[10,0,0] - 4 m[10,0,1] - 16 m[10,0,2] - 9 m[10,1,0]
   + 20 m[10,1,1] + 4 m[10,1,2] + 8 m[10,1,3] - 50000 c[10,0,-1.0]
   >= -50009
 R2423: c[10,1,0.0] + c[10,1,-3.0] + c[10,1,-2.0] + c[10,1,-1.41504]
   + c[10,1,-1.0] = 1
 R2424: - m[10,0,4] - m[10,0,5] - m[10,0,6] - m[10,0,7] - m[10,1,4]
   - m[10,1,5] - m[10,1,6] - m[10,1,7] - 50000 c[10,1,0.0] >= -50000
 R2425: c[10,1,-3.0] = 0
 R2426: - m[10,0,6] - m[10,0,7] - m[10,1,4] - m[10,1,5]
   - 50000 c[10,1,-2.0] >= -50003
 R2427: m[10,0,6] + 2 m[10,1,4] + 3 m[10,1,5] - 50000 c[10,1,-2.0]
   >= -49997
 R2428: 2 m[10,0,6] + 3 m[10,0,7] + 2 m[10,1,4] + m[10,1,5]
   - 50000 c[10,1,-2.0] >= -49996
 R2429: c[10,1,-1.41504] = 0
 R2430: - m[10,0,4] - 2 m[10,0,5] - 6649 m[10,0,6] + 6645 m[10,0,7]
   - 6645 m[10,1,4] - 4 m[10,1,5] - 2 m[10,1,6] - 3 m[10,1,7]
   - 50000 c[10,1,-1.0] >= -56656
 R2431: - 4 m[10,0,4] - 7 m[10,0,5] + 2 m[10,0,6] - m[10,0,7] - m[10,1,4]
   + 2 m[10,1,5] - 6 m[10,1,6] - 6 m[10,1,7] - 50000 c[10,1,-1.0]
   >= -50018
 R2432: 1898 m[10,0,4] + 2848 m[10,0,5] + 1901 m[10,0,6] - 6649 m[10,0,7]
   + 6647 m[10,1,4] - 5698 m[10,1,5] + 1899 m[10,1,6] + 2849 m[10,1,7]
   - 50000 c[10,1,-1.0] >= -50951
 R2433: - m[10,0,4] + 11 m[10,0,5] + 5 m[10,0,6] + 9 m[10,1,4]
   + 11 m[10,1,5] + 5 m[10,1,6] - 2 m[10,1,7] - 50000 c[10,1,-1.0]
   >= -49992
 R2434: - m[10,0,4] + 2 m[10,0,5] + 6649 m[10,0,6] - 6646 m[10,0,7]
   - 6647 m[10,1,5] - 2 m[10,1,6] + 3 m[10,1,7] - 50000 c[10,1,-1.0]
   >= -56647
 R2435: 3 m[10,0,4] + 3 m[10,0,5] + 7 m[10,0,6] + 7 m[10,0,7] + 4 m[10,1,5]
   - m[10,1,6] - m[10,1,7] - 50000 c[10,1,-1.0] >= -49995
 R2436: 4 m[10,0,4] - 6 m[10,0,5] + 15 m[10,0,6] + 2 m[10,0,7] - m[10,1,4]
   - 8 m[10,1,5] + 16 m[10,1,6] + 6 m[10,1,7] - 50000 c[10,1,-1.0]
   >= -49999
 R2437: 3 m[10,0,4] - 4 m[10,0,5] - 16 m[10,0,6] - 9 m[10,1,4]
   + 20 m[10,1,5] + 4 m[10,1,6] + 8 m[10,1,7] - 50000 c[10,1,-1.0]
   >= -50009
 R2438: c[10,2,0.0] + c[10,2,-3.0] + c[10,2,-2.0] + c[10,2,-1.41504]
   + c[10,2,-1.0] = 1
 R2439: - m[10,0,8] - m[10,0,9] - m[10,0,10] - m[10,0,11] - m[10,1,8]
   - m[10,1,9] - m[10,1,10] - m[10,1,11] - 50000 c[10,2,0.0] >= -50000
 R2440: c[10,2,-3.0] = 0
 R2441: - m[10,0,10] - m[10,0,11] - m[10,1,8] - m[10,1,9]
   - 50000 c[10,2,-2.0] >= -50003
 R2442: m[10,0,10] + 2 m[10,1,8] + 3 m[10,1,9] - 50000 c[10,2,-2.0]
   >= -49997
 R2443: 2 m[10,0,10] + 3 m[10,0,11] + 2 m[10,1,8] + m[10,1,9]
   - 50000 c[10,2,-2.0] >= -49996
 R2444: c[10,2,-1.41504] = 0
 R2445: - m[10,0,8] - 2 m[10,0,9] - 6649 m[10,0,10] + 6645 m[10,0,11]
   - 6645 m[10,1,8] - 4 m[10,1,9] - 2 m[10,1,10] - 3 m[10,1,11]
   - 50000 c[10,2,-1.0] >= -56656
 R2446: - 4 m[10,0,8] - 7 m[10,0,9] + 2 m[10,0,10] - m[10,0,11] - m[10,1,8]
   + 2 m[10,1,9] - 6 m[10,1,10] - 6 m[10,1,11] - 50000 c[10,2,-1.0]
   >= -50018
 R2447: 1898 m[10,0,8] + 2848 m[10,0,9] + 1901 m[10,0,10] - 6649 m[10,0,11]
   + 6647 m[10,1,8] - 5698 m[10,1,9] + 1899 m[10,1,10] + 2849 m[10,1,11]
   - 50000 c[10,2,-1.0] >= -50951
 R2448: - m[10,0,8] + 11 m[10,0,9] + 5 m[10,0,10] + 9 m[10,1,8]
   + 11 m[10,1,9] + 5 m[10,1,10] - 2 m[10,1,11] - 50000 c[10,2,-1.0]
   >= -49992
 R2449: - m[10,0,8] + 2 m[10,0,9] + 6649 m[10,0,10] - 6646 m[10,0,11]
   - 6647 m[10,1,9] - 2 m[10,1,10] + 3 m[10,1,11] - 50000 c[10,2,-1.0]
   >= -56647
 R2450: 3 m[10,0,8] + 3 m[10,0,9] + 7 m[10,0,10] + 7 m[10,0,11]
   + 4 m[10,1,9] - m[10,1,10] - m[10,1,11] - 50000 c[10,2,-1.0] >= -49995
 R2451: 4 m[10,0,8] - 6 m[10,0,9] + 15 m[10,0,10] + 2 m[10,0,11]
   - m[10,1,8] - 8 m[10,1,9] + 16 m[10,1,10] + 6 m[10,1,11]
   - 50000 c[10,2,-1.0] >= -49999
 R2452: 3 m[10,0,8] - 4 m[10,0,9] - 16 m[10,0,10] - 9 m[10,1,8]
   + 20 m[10,1,9] + 4 m[10,1,10] + 8 m[10,1,11] - 50000 c[10,2,-1.0]
   >= -50009
 R2453: c[10,3,0.0] + c[10,3,-3.0] + c[10,3,-2.0] + c[10,3,-1.41504]
   + c[10,3,-1.0] = 1
 R2454: - m[10,0,12] - m[10,0,13] - m[10,0,14] - m[10,0,15] - m[10,1,12]
   - m[10,1,13] - m[10,1,14] - m[10,1,15] - 50000 c[10,3,0.0] >= -50000
 R2455: c[10,3,-3.0] = 0
 R2456: - m[10,0,14] - m[10,0,15] - m[10,1,12] - m[10,1,13]
   - 50000 c[10,3,-2.0] >= -50003
 R2457: m[10,0,14] + 2 m[10,1,12] + 3 m[10,1,13] - 50000 c[10,3,-2.0]
   >= -49997
 R2458: 2 m[10,0,14] + 3 m[10,0,15] + 2 m[10,1,12] + m[10,1,13]
   - 50000 c[10,3,-2.0] >= -49996
 R2459: c[10,3,-1.41504] = 0
 R2460: - m[10,0,12] - 2 m[10,0,13] - 6649 m[10,0,14] + 6645 m[10,0,15]
   - 6645 m[10,1,12] - 4 m[10,1,13] - 2 m[10,1,14] - 3 m[10,1,15]
   - 50000 c[10,3,-1.0] >= -56656
 R2461: - 4 m[10,0,12] - 7 m[10,0,13] + 2 m[10,0,14] - m[10,0,15]
   - m[10,1,12] + 2 m[10,1,13] - 6 m[10,1,14] - 6 m[10,1,15]
   - 50000 c[10,3,-1.0] >= -50018
 R2462: 1898 m[10,0,12] + 2848 m[10,0,13] + 1901 m[10,0,14]
   - 6649 m[10,0,15] + 6647 m[10,1,12] - 5698 m[10,1,13] + 1899 m[10,1,14]
   + 2849 m[10,1,15] - 50000 c[10,3,-1.0] >= -50951
 R2463: - m[10,0,12] + 11 m[10,0,13] + 5 m[10,0,14] + 9 m[10,1,12]
   + 11 m[10,1,13] + 5 m[10,1,14] - 2 m[10,1,15] - 50000 c[10,3,-1.0]
   >= -49992
 R2464: - m[10,0,12] + 2 m[10,0,13] + 6649 m[10,0,14] - 6646 m[10,0,15]
   - 6647 m[10,1,13] - 2 m[10,1,14] + 3 m[10,1,15] - 50000 c[10,3,-1.0]
   >= -56647
 R2465: 3 m[10,0,12] + 3 m[10,0,13] + 7 m[10,0,14] + 7 m[10,0,15]
   + 4 m[10,1,13] - m[10,1,14] - m[10,1,15] - 50000 c[10,3,-1.0] >= -49995
 R2466: 4 m[10,0,12] - 6 m[10,0,13] + 15 m[10,0,14] + 2 m[10,0,15]
   - m[10,1,12] - 8 m[10,1,13] + 16 m[10,1,14] + 6 m[10,1,15]
   - 50000 c[10,3,-1.0] >= -49999
 R2467: 3 m[10,0,12] - 4 m[10,0,13] - 16 m[10,0,14] - 9 m[10,1,12]
   + 20 m[10,1,13] + 4 m[10,1,14] + 8 m[10,1,15] - 50000 c[10,3,-1.0]
   >= -50009
 R2468: c[10,4,0.0] + c[10,4,-3.0] + c[10,4,-2.0] + c[10,4,-1.41504]
   + c[10,4,-1.0] = 1
 R2469: - m[10,0,16] - m[10,0,17] - m[10,0,18] - m[10,0,19] - m[10,1,16]
   - m[10,1,17] - m[10,1,18] - m[10,1,19] - 50000 c[10,4,0.0] >= -50000
 R2470: c[10,4,-3.0] = 0
 R2471: - m[10,0,18] - m[10,0,19] - m[10,1,16] - m[10,1,17]
   - 50000 c[10,4,-2.0] >= -50003
 R2472: m[10,0,18] + 2 m[10,1,16] + 3 m[10,1,17] - 50000 c[10,4,-2.0]
   >= -49997
 R2473: 2 m[10,0,18] + 3 m[10,0,19] + 2 m[10,1,16] + m[10,1,17]
   - 50000 c[10,4,-2.0] >= -49996
 R2474: c[10,4,-1.41504] = 0
 R2475: - m[10,0,16] - 2 m[10,0,17] - 6649 m[10,0,18] + 6645 m[10,0,19]
   - 6645 m[10,1,16] - 4 m[10,1,17] - 2 m[10,1,18] - 3 m[10,1,19]
   - 50000 c[10,4,-1.0] >= -56656
 R2476: - 4 m[10,0,16] - 7 m[10,0,17] + 2 m[10,0,18] - m[10,0,19]
   - m[10,1,16] + 2 m[10,1,17] - 6 m[10,1,18] - 6 m[10,1,19]
   - 50000 c[10,4,-1.0] >= -50018
 R2477: 1898 m[10,0,16] + 2848 m[10,0,17] + 1901 m[10,0,18]
   - 6649 m[10,0,19] + 6647 m[10,1,16] - 5698 m[10,1,17] + 1899 m[10,1,18]
   + 2849 m[10,1,19] - 50000 c[10,4,-1.0] >= -50951
 R2478: - m[10,0,16] + 11 m[10,0,17] + 5 m[10,0,18] + 9 m[10,1,16]
   + 11 m[10,1,17] + 5 m[10,1,18] - 2 m[10,1,19] - 50000 c[10,4,-1.0]
   >= -49992
 R2479: - m[10,0,16] + 2 m[10,0,17] + 6649 m[10,0,18] - 6646 m[10,0,19]
   - 6647 m[10,1,17] - 2 m[10,1,18] + 3 m[10,1,19] - 50000 c[10,4,-1.0]
   >= -56647
 R2480: 3 m[10,0,16] + 3 m[10,0,17] + 7 m[10,0,18] + 7 m[10,0,19]
   + 4 m[10,1,17] - m[10,1,18] - m[10,1,19] - 50000 c[10,4,-1.0] >= -49995
 R2481: 4 m[10,0,16] - 6 m[10,0,17] + 15 m[10,0,18] + 2 m[10,0,19]
   - m[10,1,16] - 8 m[10,1,17] + 16 m[10,1,18] + 6 m[10,1,19]
   - 50000 c[10,4,-1.0] >= -49999
 R2482: 3 m[10,0,16] - 4 m[10,0,17] - 16 m[10,0,18] - 9 m[10,1,16]
   + 20 m[10,1,17] + 4 m[10,1,18] + 8 m[10,1,19] - 50000 c[10,4,-1.0]
   >= -50009
 R2483: c[10,5,0.0] + c[10,5,-3.0] + c[10,5,-2.0] + c[10,5,-1.41504]
   + c[10,5,-1.0] = 1
 R2484: - m[10,0,20] - m[10,0,21] - m[10,0,22] - m[10,0,23] - m[10,1,20]
   - m[10,1,21] - m[10,1,22] - m[10,1,23] - 50000 c[10,5,0.0] >= -50000
 R2485: c[10,5,-3.0] = 0
 R2486: - m[10,0,22] - m[10,0,23] - m[10,1,20] - m[10,1,21]
   - 50000 c[10,5,-2.0] >= -50003
 R2487: m[10,0,22] + 2 m[10,1,20] + 3 m[10,1,21] - 50000 c[10,5,-2.0]
   >= -49997
 R2488: 2 m[10,0,22] + 3 m[10,0,23] + 2 m[10,1,20] + m[10,1,21]
   - 50000 c[10,5,-2.0] >= -49996
 R2489: c[10,5,-1.41504] = 0
 R2490: - m[10,0,20] - 2 m[10,0,21] - 6649 m[10,0,22] + 6645 m[10,0,23]
   - 6645 m[10,1,20] - 4 m[10,1,21] - 2 m[10,1,22] - 3 m[10,1,23]
   - 50000 c[10,5,-1.0] >= -56656
 R2491: - 4 m[10,0,20] - 7 m[10,0,21] + 2 m[10,0,22] - m[10,0,23]
   - m[10,1,20] + 2 m[10,1,21] - 6 m[10,1,22] - 6 m[10,1,23]
   - 50000 c[10,5,-1.0] >= -50018
 R2492: 1898 m[10,0,20] + 2848 m[10,0,21] + 1901 m[10,0,22]
   - 6649 m[10,0,23] + 6647 m[10,1,20] - 5698 m[10,1,21] + 1899 m[10,1,22]
   + 2849 m[10,1,23] - 50000 c[10,5,-1.0] >= -50951
 R2493: - m[10,0,20] + 11 m[10,0,21] + 5 m[10,0,22] + 9 m[10,1,20]
   + 11 m[10,1,21] + 5 m[10,1,22] - 2 m[10,1,23] - 50000 c[10,5,-1.0]
   >= -49992
 R2494: - m[10,0,20] + 2 m[10,0,21] + 6649 m[10,0,22] - 6646 m[10,0,23]
   - 6647 m[10,1,21] - 2 m[10,1,22] + 3 m[10,1,23] - 50000 c[10,5,-1.0]
   >= -56647
 R2495: 3 m[10,0,20] + 3 m[10,0,21] + 7 m[10,0,22] + 7 m[10,0,23]
   + 4 m[10,1,21] - m[10,1,22] - m[10,1,23] - 50000 c[10,5,-1.0] >= -49995
 R2496: 4 m[10,0,20] - 6 m[10,0,21] + 15 m[10,0,22] + 2 m[10,0,23]
   - m[10,1,20] - 8 m[10,1,21] + 16 m[10,1,22] + 6 m[10,1,23]
   - 50000 c[10,5,-1.0] >= -49999
 R2497: 3 m[10,0,20] - 4 m[10,0,21] - 16 m[10,0,22] - 9 m[10,1,20]
   + 20 m[10,1,21] + 4 m[10,1,22] + 8 m[10,1,23] - 50000 c[10,5,-1.0]
   >= -50009
 R2498: c[10,6,0.0] + c[10,6,-3.0] + c[10,6,-2.0] + c[10,6,-1.41504]
   + c[10,6,-1.0] = 1
 R2499: - m[10,0,24] - m[10,0,25] - m[10,0,26] - m[10,0,27] - m[10,1,24]
   - m[10,1,25] - m[10,1,26] - m[10,1,27] - 50000 c[10,6,0.0] >= -50000
 R2500: c[10,6,-3.0] = 0
 R2501: - m[10,0,26] - m[10,0,27] - m[10,1,24] - m[10,1,25]
   - 50000 c[10,6,-2.0] >= -50003
 R2502: m[10,0,26] + 2 m[10,1,24] + 3 m[10,1,25] - 50000 c[10,6,-2.0]
   >= -49997
 R2503: 2 m[10,0,26] + 3 m[10,0,27] + 2 m[10,1,24] + m[10,1,25]
   - 50000 c[10,6,-2.0] >= -49996
 R2504: c[10,6,-1.41504] = 0
 R2505: - m[10,0,24] - 2 m[10,0,25] - 6649 m[10,0,26] + 6645 m[10,0,27]
   - 6645 m[10,1,24] - 4 m[10,1,25] - 2 m[10,1,26] - 3 m[10,1,27]
   - 50000 c[10,6,-1.0] >= -56656
 R2506: - 4 m[10,0,24] - 7 m[10,0,25] + 2 m[10,0,26] - m[10,0,27]
   - m[10,1,24] + 2 m[10,1,25] - 6 m[10,1,26] - 6 m[10,1,27]
   - 50000 c[10,6,-1.0] >= -50018
 R2507: 1898 m[10,0,24] + 2848 m[10,0,25] + 1901 m[10,0,26]
   - 6649 m[10,0,27] + 6647 m[10,1,24] - 5698 m[10,1,25] + 1899 m[10,1,26]
   + 2849 m[10,1,27] - 50000 c[10,6,-1.0] >= -50951
 R2508: - m[10,0,24] + 11 m[10,0,25] + 5 m[10,0,26] + 9 m[10,1,24]
   + 11 m[10,1,25] + 5 m[10,1,26] - 2 m[10,1,27] - 50000 c[10,6,-1.0]
   >= -49992
 R2509: - m[10,0,24] + 2 m[10,0,25] + 6649 m[10,0,26] - 6646 m[10,0,27]
   - 6647 m[10,1,25] - 2 m[10,1,26] + 3 m[10,1,27] - 50000 c[10,6,-1.0]
   >= -56647
 R2510: 3 m[10,0,24] + 3 m[10,0,25] + 7 m[10,0,26] + 7 m[10,0,27]
   + 4 m[10,1,25] - m[10,1,26] - m[10,1,27] - 50000 c[10,6,-1.0] >= -49995
 R2511: 4 m[10,0,24] - 6 m[10,0,25] + 15 m[10,0,26] + 2 m[10,0,27]
   - m[10,1,24] - 8 m[10,1,25] + 16 m[10,1,26] + 6 m[10,1,27]
   - 50000 c[10,6,-1.0] >= -49999
 R2512: 3 m[10,0,24] - 4 m[10,0,25] - 16 m[10,0,26] - 9 m[10,1,24]
   + 20 m[10,1,25] + 4 m[10,1,26] + 8 m[10,1,27] - 50000 c[10,6,-1.0]
   >= -50009
 R2513: c[10,7,0.0] + c[10,7,-3.0] + c[10,7,-2.0] + c[10,7,-1.41504]
   + c[10,7,-1.0] = 1
 R2514: - m[10,0,28] - m[10,0,29] - m[10,0,30] - m[10,0,31] - m[10,1,28]
   - m[10,1,29] - m[10,1,30] - m[10,1,31] - 50000 c[10,7,0.0] >= -50000
 R2515: c[10,7,-3.0] = 0
 R2516: - m[10,0,30] - m[10,0,31] - m[10,1,28] - m[10,1,29]
   - 50000 c[10,7,-2.0] >= -50003
 R2517: m[10,0,30] + 2 m[10,1,28] + 3 m[10,1,29] - 50000 c[10,7,-2.0]
   >= -49997
 R2518: 2 m[10,0,30] + 3 m[10,0,31] + 2 m[10,1,28] + m[10,1,29]
   - 50000 c[10,7,-2.0] >= -49996
 R2519: c[10,7,-1.41504] = 0
 R2520: - m[10,0,28] - 2 m[10,0,29] - 6649 m[10,0,30] + 6645 m[10,0,31]
   - 6645 m[10,1,28] - 4 m[10,1,29] - 2 m[10,1,30] - 3 m[10,1,31]
   - 50000 c[10,7,-1.0] >= -56656
 R2521: - 4 m[10,0,28] - 7 m[10,0,29] + 2 m[10,0,30] - m[10,0,31]
   - m[10,1,28] + 2 m[10,1,29] - 6 m[10,1,30] - 6 m[10,1,31]
   - 50000 c[10,7,-1.0] >= -50018
 R2522: 1898 m[10,0,28] + 2848 m[10,0,29] + 1901 m[10,0,30]
   - 6649 m[10,0,31] + 6647 m[10,1,28] - 5698 m[10,1,29] + 1899 m[10,1,30]
   + 2849 m[10,1,31] - 50000 c[10,7,-1.0] >= -50951
 R2523: - m[10,0,28] + 11 m[10,0,29] + 5 m[10,0,30] + 9 m[10,1,28]
   + 11 m[10,1,29] + 5 m[10,1,30] - 2 m[10,1,31] - 50000 c[10,7,-1.0]
   >= -49992
 R2524: - m[10,0,28] + 2 m[10,0,29] + 6649 m[10,0,30] - 6646 m[10,0,31]
   - 6647 m[10,1,29] - 2 m[10,1,30] + 3 m[10,1,31] - 50000 c[10,7,-1.0]
   >= -56647
 R2525: 3 m[10,0,28] + 3 m[10,0,29] + 7 m[10,0,30] + 7 m[10,0,31]
   + 4 m[10,1,29] - m[10,1,30] - m[10,1,31] - 50000 c[10,7,-1.0] >= -49995
 R2526: 4 m[10,0,28] - 6 m[10,0,29] + 15 m[10,0,30] + 2 m[10,0,31]
   - m[10,1,28] - 8 m[10,1,29] + 16 m[10,1,30] + 6 m[10,1,31]
   - 50000 c[10,7,-1.0] >= -49999
 R2527: 3 m[10,0,28] - 4 m[10,0,29] - 16 m[10,0,30] - 9 m[10,1,28]
   + 20 m[10,1,29] + 4 m[10,1,30] + 8 m[10,1,31] - 50000 c[10,7,-1.0]
   >= -50009
 R2528: c[10,8,0.0] + c[10,8,-3.0] + c[10,8,-2.0] + c[10,8,-1.41504]
   + c[10,8,-1.0] = 1
 R2529: - m[10,0,32] - m[10,0,33] - m[10,0,34] - m[10,0,35] - m[10,1,32]
   - m[10,1,33] - m[10,1,34] - m[10,1,35] - 50000 c[10,8,0.0] >= -50000
 R2530: c[10,8,-3.0] = 0
 R2531: - m[10,0,34] - m[10,0,35] - m[10,1,32] - m[10,1,33]
   - 50000 c[10,8,-2.0] >= -50003
 R2532: m[10,0,34] + 2 m[10,1,32] + 3 m[10,1,33] - 50000 c[10,8,-2.0]
   >= -49997
 R2533: 2 m[10,0,34] + 3 m[10,0,35] + 2 m[10,1,32] + m[10,1,33]
   - 50000 c[10,8,-2.0] >= -49996
 R2534: c[10,8,-1.41504] = 0
 R2535: - m[10,0,32] - 2 m[10,0,33] - 6649 m[10,0,34] + 6645 m[10,0,35]
   - 6645 m[10,1,32] - 4 m[10,1,33] - 2 m[10,1,34] - 3 m[10,1,35]
   - 50000 c[10,8,-1.0] >= -56656
 R2536: - 4 m[10,0,32] - 7 m[10,0,33] + 2 m[10,0,34] - m[10,0,35]
   - m[10,1,32] + 2 m[10,1,33] - 6 m[10,1,34] - 6 m[10,1,35]
   - 50000 c[10,8,-1.0] >= -50018
 R2537: 1898 m[10,0,32] + 2848 m[10,0,33] + 1901 m[10,0,34]
   - 6649 m[10,0,35] + 6647 m[10,1,32] - 5698 m[10,1,33] + 1899 m[10,1,34]
   + 2849 m[10,1,35] - 50000 c[10,8,-1.0] >= -50951
 R2538: - m[10,0,32] + 11 m[10,0,33] + 5 m[10,0,34] + 9 m[10,1,32]
   + 11 m[10,1,33] + 5 m[10,1,34] - 2 m[10,1,35] - 50000 c[10,8,-1.0]
   >= -49992
 R2539: - m[10,0,32] + 2 m[10,0,33] + 6649 m[10,0,34] - 6646 m[10,0,35]
   - 6647 m[10,1,33] - 2 m[10,1,34] + 3 m[10,1,35] - 50000 c[10,8,-1.0]
   >= -56647
 R2540: 3 m[10,0,32] + 3 m[10,0,33] + 7 m[10,0,34] + 7 m[10,0,35]
   + 4 m[10,1,33] - m[10,1,34] - m[10,1,35] - 50000 c[10,8,-1.0] >= -49995
 R2541: 4 m[10,0,32] - 6 m[10,0,33] + 15 m[10,0,34] + 2 m[10,0,35]
   - m[10,1,32] - 8 m[10,1,33] + 16 m[10,1,34] + 6 m[10,1,35]
   - 50000 c[10,8,-1.0] >= -49999
 R2542: 3 m[10,0,32] - 4 m[10,0,33] - 16 m[10,0,34] - 9 m[10,1,32]
   + 20 m[10,1,33] + 4 m[10,1,34] + 8 m[10,1,35] - 50000 c[10,8,-1.0]
   >= -50009
 R2543: c[10,9,0.0] + c[10,9,-3.0] + c[10,9,-2.0] + c[10,9,-1.41504]
   + c[10,9,-1.0] = 1
 R2544: - m[10,0,36] - m[10,0,37] - m[10,0,38] - m[10,0,39] - m[10,1,36]
   - m[10,1,37] - m[10,1,38] - m[10,1,39] - 50000 c[10,9,0.0] >= -50000
 R2545: c[10,9,-3.0] = 0
 R2546: - m[10,0,38] - m[10,0,39] - m[10,1,36] - m[10,1,37]
   - 50000 c[10,9,-2.0] >= -50003
 R2547: m[10,0,38] + 2 m[10,1,36] + 3 m[10,1,37] - 50000 c[10,9,-2.0]
   >= -49997
 R2548: 2 m[10,0,38] + 3 m[10,0,39] + 2 m[10,1,36] + m[10,1,37]
   - 50000 c[10,9,-2.0] >= -49996
 R2549: c[10,9,-1.41504] = 0
 R2550: - m[10,0,36] - 2 m[10,0,37] - 6649 m[10,0,38] + 6645 m[10,0,39]
   - 6645 m[10,1,36] - 4 m[10,1,37] - 2 m[10,1,38] - 3 m[10,1,39]
   - 50000 c[10,9,-1.0] >= -56656
 R2551: - 4 m[10,0,36] - 7 m[10,0,37] + 2 m[10,0,38] - m[10,0,39]
   - m[10,1,36] + 2 m[10,1,37] - 6 m[10,1,38] - 6 m[10,1,39]
   - 50000 c[10,9,-1.0] >= -50018
 R2552: 1898 m[10,0,36] + 2848 m[10,0,37] + 1901 m[10,0,38]
   - 6649 m[10,0,39] + 6647 m[10,1,36] - 5698 m[10,1,37] + 1899 m[10,1,38]
   + 2849 m[10,1,39] - 50000 c[10,9,-1.0] >= -50951
 R2553: - m[10,0,36] + 11 m[10,0,37] + 5 m[10,0,38] + 9 m[10,1,36]
   + 11 m[10,1,37] + 5 m[10,1,38] - 2 m[10,1,39] - 50000 c[10,9,-1.0]
   >= -49992
 R2554: - m[10,0,36] + 2 m[10,0,37] + 6649 m[10,0,38] - 6646 m[10,0,39]
   - 6647 m[10,1,37] - 2 m[10,1,38] + 3 m[10,1,39] - 50000 c[10,9,-1.0]
   >= -56647
 R2555: 3 m[10,0,36] + 3 m[10,0,37] + 7 m[10,0,38] + 7 m[10,0,39]
   + 4 m[10,1,37] - m[10,1,38] - m[10,1,39] - 50000 c[10,9,-1.0] >= -49995
 R2556: 4 m[10,0,36] - 6 m[10,0,37] + 15 m[10,0,38] + 2 m[10,0,39]
   - m[10,1,36] - 8 m[10,1,37] + 16 m[10,1,38] + 6 m[10,1,39]
   - 50000 c[10,9,-1.0] >= -49999
 R2557: 3 m[10,0,36] - 4 m[10,0,37] - 16 m[10,0,38] - 9 m[10,1,36]
   + 20 m[10,1,37] + 4 m[10,1,38] + 8 m[10,1,39] - 50000 c[10,9,-1.0]
   >= -50009
 R2558: c[10,10,0.0] + c[10,10,-3.0] + c[10,10,-2.0] + c[10,10,-1.41504]
   + c[10,10,-1.0] = 1
 R2559: - m[10,0,40] - m[10,0,41] - m[10,0,42] - m[10,0,43] - m[10,1,40]
   - m[10,1,41] - m[10,1,42] - m[10,1,43] - 50000 c[10,10,0.0] >= -50000
 R2560: c[10,10,-3.0] = 0
 R2561: - m[10,0,42] - m[10,0,43] - m[10,1,40] - m[10,1,41]
   - 50000 c[10,10,-2.0] >= -50003
 R2562: m[10,0,42] + 2 m[10,1,40] + 3 m[10,1,41] - 50000 c[10,10,-2.0]
   >= -49997
 R2563: 2 m[10,0,42] + 3 m[10,0,43] + 2 m[10,1,40] + m[10,1,41]
   - 50000 c[10,10,-2.0] >= -49996
 R2564: c[10,10,-1.41504] = 0
 R2565: - m[10,0,40] - 2 m[10,0,41] - 6649 m[10,0,42] + 6645 m[10,0,43]
   - 6645 m[10,1,40] - 4 m[10,1,41] - 2 m[10,1,42] - 3 m[10,1,43]
   - 50000 c[10,10,-1.0] >= -56656
 R2566: - 4 m[10,0,40] - 7 m[10,0,41] + 2 m[10,0,42] - m[10,0,43]
   - m[10,1,40] + 2 m[10,1,41] - 6 m[10,1,42] - 6 m[10,1,43]
   - 50000 c[10,10,-1.0] >= -50018
 R2567: 1898 m[10,0,40] + 2848 m[10,0,41] + 1901 m[10,0,42]
   - 6649 m[10,0,43] + 6647 m[10,1,40] - 5698 m[10,1,41] + 1899 m[10,1,42]
   + 2849 m[10,1,43] - 50000 c[10,10,-1.0] >= -50951
 R2568: - m[10,0,40] + 11 m[10,0,41] + 5 m[10,0,42] + 9 m[10,1,40]
   + 11 m[10,1,41] + 5 m[10,1,42] - 2 m[10,1,43] - 50000 c[10,10,-1.0]
   >= -49992
 R2569: - m[10,0,40] + 2 m[10,0,41] + 6649 m[10,0,42] - 6646 m[10,0,43]
   - 6647 m[10,1,41] - 2 m[10,1,42] + 3 m[10,1,43] - 50000 c[10,10,-1.0]
   >= -56647
 R2570: 3 m[10,0,40] + 3 m[10,0,41] + 7 m[10,0,42] + 7 m[10,0,43]
   + 4 m[10,1,41] - m[10,1,42] - m[10,1,43] - 50000 c[10,10,-1.0]
   >= -49995
 R2571: 4 m[10,0,40] - 6 m[10,0,41] + 15 m[10,0,42] + 2 m[10,0,43]
   - m[10,1,40] - 8 m[10,1,41] + 16 m[10,1,42] + 6 m[10,1,43]
   - 50000 c[10,10,-1.0] >= -49999
 R2572: 3 m[10,0,40] - 4 m[10,0,41] - 16 m[10,0,42] - 9 m[10,1,40]
   + 20 m[10,1,41] + 4 m[10,1,42] + 8 m[10,1,43] - 50000 c[10,10,-1.0]
   >= -50009
 R2573: c[10,11,0.0] + c[10,11,-3.0] + c[10,11,-2.0] + c[10,11,-1.41504]
   + c[10,11,-1.0] = 1
 R2574: c[10,11,0.0] = 0
 R2575: - m[10,0,45] - m[10,0,47] - m[10,1,44] - 50000 c[10,11,-3.0]
   >= -50002
 R2576: m[10,0,45] + m[10,0,47] - m[10,1,44] - 50000 c[10,11,-3.0]
   >= -50000
 R2577: - m[10,0,45] + m[10,0,47] + m[10,1,44] - 50000 c[10,11,-3.0]
   >= -50000
 R2578: m[10,0,45] - m[10,0,47] + m[10,1,44] - 50000 c[10,11,-3.0]
   >= -50000
 R2579: c[10,11,-2.0] = 0
 R2580: c[10,11,-1.41504] = 0
 R2581: c[10,11,-1.0] = 0
 R2582: c[10,12,0.0] + c[10,12,-3.0] + c[10,12,-2.0] + c[10,12,-1.41504]
   + c[10,12,-1.0] = 1
 R2583: - m[10,0,48] - m[10,0,49] - m[10,0,50] - m[10,0,51] - m[10,1,48]
   - m[10,1,49] - m[10,1,50] - m[10,1,51] - 50000 c[10,12,0.0] >= -50000
 R2584: c[10,12,-3.0] = 0
 R2585: - m[10,0,50] - m[10,0,51] - m[10,1,48] - m[10,1,49]
   - 50000 c[10,12,-2.0] >= -50003
 R2586: m[10,0,50] + 2 m[10,1,48] + 3 m[10,1,49] - 50000 c[10,12,-2.0]
   >= -49997
 R2587: 2 m[10,0,50] + 3 m[10,0,51] + 2 m[10,1,48] + m[10,1,49]
   - 50000 c[10,12,-2.0] >= -49996
 R2588: c[10,12,-1.41504] = 0
 R2589: - m[10,0,48] - 2 m[10,0,49] - 6649 m[10,0,50] + 6645 m[10,0,51]
   - 6645 m[10,1,48] - 4 m[10,1,49] - 2 m[10,1,50] - 3 m[10,1,51]
   - 50000 c[10,12,-1.0] >= -56656
 R2590: - 4 m[10,0,48] - 7 m[10,0,49] + 2 m[10,0,50] - m[10,0,51]
   - m[10,1,48] + 2 m[10,1,49] - 6 m[10,1,50] - 6 m[10,1,51]
   - 50000 c[10,12,-1.0] >= -50018
 R2591: 1898 m[10,0,48] + 2848 m[10,0,49] + 1901 m[10,0,50]
   - 6649 m[10,0,51] + 6647 m[10,1,48] - 5698 m[10,1,49] + 1899 m[10,1,50]
   + 2849 m[10,1,51] - 50000 c[10,12,-1.0] >= -50951
 R2592: - m[10,0,48] + 11 m[10,0,49] + 5 m[10,0,50] + 9 m[10,1,48]
   + 11 m[10,1,49] + 5 m[10,1,50] - 2 m[10,1,51] - 50000 c[10,12,-1.0]
   >= -49992
 R2593: - m[10,0,48] + 2 m[10,0,49] + 6649 m[10,0,50] - 6646 m[10,0,51]
   - 6647 m[10,1,49] - 2 m[10,1,50] + 3 m[10,1,51] - 50000 c[10,12,-1.0]
   >= -56647
 R2594: 3 m[10,0,48] + 3 m[10,0,49] + 7 m[10,0,50] + 7 m[10,0,51]
   + 4 m[10,1,49] - m[10,1,50] - m[10,1,51] - 50000 c[10,12,-1.0]
   >= -49995
 R2595: 4 m[10,0,48] - 6 m[10,0,49] + 15 m[10,0,50] + 2 m[10,0,51]
   - m[10,1,48] - 8 m[10,1,49] + 16 m[10,1,50] + 6 m[10,1,51]
   - 50000 c[10,12,-1.0] >= -49999
 R2596: 3 m[10,0,48] - 4 m[10,0,49] - 16 m[10,0,50] - 9 m[10,1,48]
   + 20 m[10,1,49] + 4 m[10,1,50] + 8 m[10,1,51] - 50000 c[10,12,-1.0]
   >= -50009
 R2597: c[10,13,0.0] + c[10,13,-3.0] + c[10,13,-2.0] + c[10,13,-1.41504]
   + c[10,13,-1.0] = 1
 R2598: - m[10,0,52] - m[10,0,53] - m[10,0,54] - m[10,0,55] - m[10,1,52]
   - m[10,1,53] - m[10,1,54] - m[10,1,55] - 50000 c[10,13,0.0] >= -50000
 R2599: c[10,13,-3.0] = 0
 R2600: - m[10,0,54] - m[10,0,55] - m[10,1,52] - m[10,1,53]
   - 50000 c[10,13,-2.0] >= -50003
 R2601: m[10,0,54] + 2 m[10,1,52] + 3 m[10,1,53] - 50000 c[10,13,-2.0]
   >= -49997
 R2602: 2 m[10,0,54] + 3 m[10,0,55] + 2 m[10,1,52] + m[10,1,53]
   - 50000 c[10,13,-2.0] >= -49996
 R2603: c[10,13,-1.41504] = 0
 R2604: - m[10,0,52] - 2 m[10,0,53] - 6649 m[10,0,54] + 6645 m[10,0,55]
   - 6645 m[10,1,52] - 4 m[10,1,53] - 2 m[10,1,54] - 3 m[10,1,55]
   - 50000 c[10,13,-1.0] >= -56656
 R2605: - 4 m[10,0,52] - 7 m[10,0,53] + 2 m[10,0,54] - m[10,0,55]
   - m[10,1,52] + 2 m[10,1,53] - 6 m[10,1,54] - 6 m[10,1,55]
   - 50000 c[10,13,-1.0] >= -50018
 R2606: 1898 m[10,0,52] + 2848 m[10,0,53] + 1901 m[10,0,54]
   - 6649 m[10,0,55] + 6647 m[10,1,52] - 5698 m[10,1,53] + 1899 m[10,1,54]
   + 2849 m[10,1,55] - 50000 c[10,13,-1.0] >= -50951
 R2607: - m[10,0,52] + 11 m[10,0,53] + 5 m[10,0,54] + 9 m[10,1,52]
   + 11 m[10,1,53] + 5 m[10,1,54] - 2 m[10,1,55] - 50000 c[10,13,-1.0]
   >= -49992
 R2608: - m[10,0,52] + 2 m[10,0,53] + 6649 m[10,0,54] - 6646 m[10,0,55]
   - 6647 m[10,1,53] - 2 m[10,1,54] + 3 m[10,1,55] - 50000 c[10,13,-1.0]
   >= -56647
 R2609: 3 m[10,0,52] + 3 m[10,0,53] + 7 m[10,0,54] + 7 m[10,0,55]
   + 4 m[10,1,53] - m[10,1,54] - m[10,1,55] - 50000 c[10,13,-1.0]
   >= -49995
 R2610: 4 m[10,0,52] - 6 m[10,0,53] + 15 m[10,0,54] + 2 m[10,0,55]
   - m[10,1,52] - 8 m[10,1,53] + 16 m[10,1,54] + 6 m[10,1,55]
   - 50000 c[10,13,-1.0] >= -49999
 R2611: 3 m[10,0,52] - 4 m[10,0,53] - 16 m[10,0,54] - 9 m[10,1,52]
   + 20 m[10,1,53] + 4 m[10,1,54] + 8 m[10,1,55] - 50000 c[10,13,-1.0]
   >= -50009
 R2612: c[10,14,0.0] + c[10,14,-3.0] + c[10,14,-2.0] + c[10,14,-1.41504]
   + c[10,14,-1.0] = 1
 R2613: - m[10,0,56] - m[10,0,57] - m[10,0,58] - m[10,0,59] - m[10,1,56]
   - m[10,1,57] - m[10,1,58] - m[10,1,59] - 50000 c[10,14,0.0] >= -50000
 R2614: c[10,14,-3.0] = 0
 R2615: - m[10,0,58] - m[10,0,59] - m[10,1,56] - m[10,1,57]
   - 50000 c[10,14,-2.0] >= -50003
 R2616: m[10,0,58] + 2 m[10,1,56] + 3 m[10,1,57] - 50000 c[10,14,-2.0]
   >= -49997
 R2617: 2 m[10,0,58] + 3 m[10,0,59] + 2 m[10,1,56] + m[10,1,57]
   - 50000 c[10,14,-2.0] >= -49996
 R2618: c[10,14,-1.41504] = 0
 R2619: - m[10,0,56] - 2 m[10,0,57] - 6649 m[10,0,58] + 6645 m[10,0,59]
   - 6645 m[10,1,56] - 4 m[10,1,57] - 2 m[10,1,58] - 3 m[10,1,59]
   - 50000 c[10,14,-1.0] >= -56656
 R2620: - 4 m[10,0,56] - 7 m[10,0,57] + 2 m[10,0,58] - m[10,0,59]
   - m[10,1,56] + 2 m[10,1,57] - 6 m[10,1,58] - 6 m[10,1,59]
   - 50000 c[10,14,-1.0] >= -50018
 R2621: 1898 m[10,0,56] + 2848 m[10,0,57] + 1901 m[10,0,58]
   - 6649 m[10,0,59] + 6647 m[10,1,56] - 5698 m[10,1,57] + 1899 m[10,1,58]
   + 2849 m[10,1,59] - 50000 c[10,14,-1.0] >= -50951
 R2622: - m[10,0,56] + 11 m[10,0,57] + 5 m[10,0,58] + 9 m[10,1,56]
   + 11 m[10,1,57] + 5 m[10,1,58] - 2 m[10,1,59] - 50000 c[10,14,-1.0]
   >= -49992
 R2623: - m[10,0,56] + 2 m[10,0,57] + 6649 m[10,0,58] - 6646 m[10,0,59]
   - 6647 m[10,1,57] - 2 m[10,1,58] + 3 m[10,1,59] - 50000 c[10,14,-1.0]
   >= -56647
 R2624: 3 m[10,0,56] + 3 m[10,0,57] + 7 m[10,0,58] + 7 m[10,0,59]
   + 4 m[10,1,57] - m[10,1,58] - m[10,1,59] - 50000 c[10,14,-1.0]
   >= -49995
 R2625: 4 m[10,0,56] - 6 m[10,0,57] + 15 m[10,0,58] + 2 m[10,0,59]
   - m[10,1,56] - 8 m[10,1,57] + 16 m[10,1,58] + 6 m[10,1,59]
   - 50000 c[10,14,-1.0] >= -49999
 R2626: 3 m[10,0,56] - 4 m[10,0,57] - 16 m[10,0,58] - 9 m[10,1,56]
   + 20 m[10,1,57] + 4 m[10,1,58] + 8 m[10,1,59] - 50000 c[10,14,-1.0]
   >= -50009
 R2627: c[10,15,0.0] + c[10,15,-3.0] + c[10,15,-2.0] + c[10,15,-1.41504]
   + c[10,15,-1.0] = 1
 R2628: c[10,15,0.0] = 0
 R2629: c[10,15,-3.0] = 0
 R2630: 3 m[10,0,60] - m[10,0,61] + 2 m[10,0,62] + m[10,1,62]
   - 2 m[10,1,63] - 50000 c[10,15,-2.0] >= -50000
 R2631: - 3 m[10,0,60] - m[10,0,61] + 2 m[10,0,62] - m[10,1,62]
   + 2 m[10,1,63] - 50000 c[10,15,-2.0] >= -50002
 R2632: 3 m[10,0,60] + m[10,0,61] - 2 m[10,0,62] - m[10,1,62]
   + 2 m[10,1,63] - 50000 c[10,15,-2.0] >= -50000
 R2633: - 3 m[10,0,60] + m[10,0,61] - 2 m[10,0,62] + m[10,1,62]
   - 2 m[10,1,63] - 50000 c[10,15,-2.0] >= -50004
 R2634: c[10,15,-1.41504] = 0
 R2635: c[10,15,-1.0] = 0
 R2636: c[11,0,0.0] + c[11,0,-3.0] + c[11,0,-2.0] + c[11,0,-1.41504]
   + c[11,0,-1.0] = 1
 R2637: - m[11,0,0] - m[11,0,1] - m[11,0,2] - m[11,0,3] - m[11,1,0]
   - m[11,1,1] - m[11,1,2] - m[11,1,3] - 50000 c[11,0,0.0] >= -50000
 R2638: c[11,0,-3.0] = 0
 R2639: - m[11,0,2] - m[11,0,3] - m[11,1,0] - m[11,1,1]
   - 50000 c[11,0,-2.0] >= -50003
 R2640: m[11,0,2] + 2 m[11,1,0] + 3 m[11,1,1] - 50000 c[11,0,-2.0]
   >= -49997
 R2641: 2 m[11,0,2] + 3 m[11,0,3] + 2 m[11,1,0] + m[11,1,1]
   - 50000 c[11,0,-2.0] >= -49996
 R2642: c[11,0,-1.41504] = 0
 R2643: - m[11,0,0] - 2 m[11,0,1] - 6649 m[11,0,2] + 6645 m[11,0,3]
   - 6645 m[11,1,0] - 4 m[11,1,1] - 2 m[11,1,2] - 3 m[11,1,3]
   - 50000 c[11,0,-1.0] >= -56656
 R2644: - 4 m[11,0,0] - 7 m[11,0,1] + 2 m[11,0,2] - m[11,0,3] - m[11,1,0]
   + 2 m[11,1,1] - 6 m[11,1,2] - 6 m[11,1,3] - 50000 c[11,0,-1.0]
   >= -50018
 R2645: 1898 m[11,0,0] + 2848 m[11,0,1] + 1901 m[11,0,2] - 6649 m[11,0,3]
   + 6647 m[11,1,0] - 5698 m[11,1,1] + 1899 m[11,1,2] + 2849 m[11,1,3]
   - 50000 c[11,0,-1.0] >= -50951
 R2646: - m[11,0,0] + 11 m[11,0,1] + 5 m[11,0,2] + 9 m[11,1,0]
   + 11 m[11,1,1] + 5 m[11,1,2] - 2 m[11,1,3] - 50000 c[11,0,-1.0]
   >= -49992
 R2647: - m[11,0,0] + 2 m[11,0,1] + 6649 m[11,0,2] - 6646 m[11,0,3]
   - 6647 m[11,1,1] - 2 m[11,1,2] + 3 m[11,1,3] - 50000 c[11,0,-1.0]
   >= -56647
 R2648: 3 m[11,0,0] + 3 m[11,0,1] + 7 m[11,0,2] + 7 m[11,0,3] + 4 m[11,1,1]
   - m[11,1,2] - m[11,1,3] - 50000 c[11,0,-1.0] >= -49995
 R2649: 4 m[11,0,0] - 6 m[11,0,1] + 15 m[11,0,2] + 2 m[11,0,3] - m[11,1,0]
   - 8 m[11,1,1] + 16 m[11,1,2] + 6 m[11,1,3] - 50000 c[11,0,-1.0]
   >= -49999
 R2650: 3 m[11,0,0] - 4 m[11,0,1] - 16 m[11,0,2] - 9 m[11,1,0]
   + 20 m[11,1,1] + 4 m[11,1,2] + 8 m[11,1,3] - 50000 c[11,0,-1.0]
   >= -50009
 R2651: c[11,1,0.0] + c[11,1,-3.0] + c[11,1,-2.0] + c[11,1,-1.41504]
   + c[11,1,-1.0] = 1
 R2652: - m[11,0,4] - m[11,0,5] - m[11,0,6] - m[11,0,7] - m[11,1,4]
   - m[11,1,5] - m[11,1,6] - m[11,1,7] - 50000 c[11,1,0.0] >= -50000
 R2653: c[11,1,-3.0] = 0
 R2654: - m[11,0,6] - m[11,0,7] - m[11,1,4] - m[11,1,5]
   - 50000 c[11,1,-2.0] >= -50003
 R2655: m[11,0,6] + 2 m[11,1,4] + 3 m[11,1,5] - 50000 c[11,1,-2.0]
   >= -49997
 R2656: 2 m[11,0,6] + 3 m[11,0,7] + 2 m[11,1,4] + m[11,1,5]
   - 50000 c[11,1,-2.0] >= -49996
 R2657: c[11,1,-1.41504] = 0
 R2658: - m[11,0,4] - 2 m[11,0,5] - 6649 m[11,0,6] + 6645 m[11,0,7]
   - 6645 m[11,1,4] - 4 m[11,1,5] - 2 m[11,1,6] - 3 m[11,1,7]
   - 50000 c[11,1,-1.0] >= -56656
 R2659: - 4 m[11,0,4] - 7 m[11,0,5] + 2 m[11,0,6] - m[11,0,7] - m[11,1,4]
   + 2 m[11,1,5] - 6 m[11,1,6] - 6 m[11,1,7] - 50000 c[11,1,-1.0]
   >= -50018
 R2660: 1898 m[11,0,4] + 2848 m[11,0,5] + 1901 m[11,0,6] - 6649 m[11,0,7]
   + 6647 m[11,1,4] - 5698 m[11,1,5] + 1899 m[11,1,6] + 2849 m[11,1,7]
   - 50000 c[11,1,-1.0] >= -50951
 R2661: - m[11,0,4] + 11 m[11,0,5] + 5 m[11,0,6] + 9 m[11,1,4]
   + 11 m[11,1,5] + 5 m[11,1,6] - 2 m[11,1,7] - 50000 c[11,1,-1.0]
   >= -49992
 R2662: - m[11,0,4] + 2 m[11,0,5] + 6649 m[11,0,6] - 6646 m[11,0,7]
   - 6647 m[11,1,5] - 2 m[11,1,6] + 3 m[11,1,7] - 50000 c[11,1,-1.0]
   >= -56647
 R2663: 3 m[11,0,4] + 3 m[11,0,5] + 7 m[11,0,6] + 7 m[11,0,7] + 4 m[11,1,5]
   - m[11,1,6] - m[11,1,7] - 50000 c[11,1,-1.0] >= -49995
 R2664: 4 m[11,0,4] - 6 m[11,0,5] + 15 m[11,0,6] + 2 m[11,0,7] - m[11,1,4]
   - 8 m[11,1,5] + 16 m[11,1,6] + 6 m[11,1,7] - 50000 c[11,1,-1.0]
   >= -49999
 R2665: 3 m[11,0,4] - 4 m[11,0,5] - 16 m[11,0,6] - 9 m[11,1,4]
   + 20 m[11,1,5] + 4 m[11,1,6] + 8 m[11,1,7] - 50000 c[11,1,-1.0]
   >= -50009
 R2666: c[11,2,0.0] + c[11,2,-3.0] + c[11,2,-2.0] + c[11,2,-1.41504]
   + c[11,2,-1.0] = 1
 R2667: c[11,2,0.0] = 0
 R2668: c[11,2,-3.0] = 0
 R2669: - 3 m[11,0,8] - 2 m[11,0,9] - 2 m[11,1,9] + m[11,1,10] + m[11,1,11]
   - 50000 c[11,2,-2.0] >= -50004
 R2670: 3 m[11,0,8] - 2 m[11,0,9] + 2 m[11,1,9] + m[11,1,10] - m[11,1,11]
   - 50000 c[11,2,-2.0] >= -50000
 R2671: 3 m[11,0,8] + 2 m[11,0,9] - 2 m[11,1,9] - m[11,1,10] + m[11,1,11]
   - 50000 c[11,2,-2.0] >= -50000
 R2672: - 3 m[11,0,8] + 2 m[11,0,9] + 2 m[11,1,9] - m[11,1,10] - m[11,1,11]
   - 50000 c[11,2,-2.0] >= -50002
 R2673: c[11,2,-1.41504] = 0
 R2674: c[11,2,-1.0] = 0
 R2675: c[11,3,0.0] + c[11,3,-3.0] + c[11,3,-2.0] + c[11,3,-1.41504]
   + c[11,3,-1.0] = 1
 R2676: - m[11,0,12] - m[11,0,13] - m[11,0,14] - m[11,0,15] - m[11,1,12]
   - m[11,1,13] - m[11,1,14] - m[11,1,15] - 50000 c[11,3,0.0] >= -50000
 R2677: c[11,3,-3.0] = 0
 R2678: - m[11,0,14] - m[11,0,15] - m[11,1,12] - m[11,1,13]
   - 50000 c[11,3,-2.0] >= -50003
 R2679: m[11,0,14] + 2 m[11,1,12] + 3 m[11,1,13] - 50000 c[11,3,-2.0]
   >= -49997
 R2680: 2 m[11,0,14] + 3 m[11,0,15] + 2 m[11,1,12] + m[11,1,13]
   - 50000 c[11,3,-2.0] >= -49996
 R2681: c[11,3,-1.41504] = 0
 R2682: - m[11,0,12] - 2 m[11,0,13] - 6649 m[11,0,14] + 6645 m[11,0,15]
   - 6645 m[11,1,12] - 4 m[11,1,13] - 2 m[11,1,14] - 3 m[11,1,15]
   - 50000 c[11,3,-1.0] >= -56656
 R2683: - 4 m[11,0,12] - 7 m[11,0,13] + 2 m[11,0,14] - m[11,0,15]
   - m[11,1,12] + 2 m[11,1,13] - 6 m[11,1,14] - 6 m[11,1,15]
   - 50000 c[11,3,-1.0] >= -50018
 R2684: 1898 m[11,0,12] + 2848 m[11,0,13] + 1901 m[11,0,14]
   - 6649 m[11,0,15] + 6647 m[11,1,12] - 5698 m[11,1,13] + 1899 m[11,1,14]
   + 2849 m[11,1,15] - 50000 c[11,3,-1.0] >= -50951
 R2685: - m[11,0,12] + 11 m[11,0,13] + 5 m[11,0,14] + 9 m[11,1,12]
   + 11 m[11,1,13] + 5 m[11,1,14] - 2 m[11,1,15] - 50000 c[11,3,-1.0]
   >= -49992
 R2686: - m[11,0,12] + 2 m[11,0,13] + 6649 m[11,0,14] - 6646 m[11,0,15]
   - 6647 m[11,1,13] - 2 m[11,1,14] + 3 m[11,1,15] - 50000 c[11,3,-1.0]
   >= -56647
 R2687: 3 m[11,0,12] + 3 m[11,0,13] + 7 m[11,0,14] + 7 m[11,0,15]
   + 4 m[11,1,13] - m[11,1,14] - m[11,1,15] - 50000 c[11,3,-1.0] >= -49995
 R2688: 4 m[11,0,12] - 6 m[11,0,13] + 15 m[11,0,14] + 2 m[11,0,15]
   - m[11,1,12] - 8 m[11,1,13] + 16 m[11,1,14] + 6 m[11,1,15]
   - 50000 c[11,3,-1.0] >= -49999
 R2689: 3 m[11,0,12] - 4 m[11,0,13] - 16 m[11,0,14] - 9 m[11,1,12]
   + 20 m[11,1,13] + 4 m[11,1,14] + 8 m[11,1,15] - 50000 c[11,3,-1.0]
   >= -50009
 R2690: c[11,4,0.0] + c[11,4,-3.0] + c[11,4,-2.0] + c[11,4,-1.41504]
   + c[11,4,-1.0] = 1
 R2691: - m[11,0,16] - m[11,0,17] - m[11,0,18] - m[11,0,19] - m[11,1,16]
   - m[11,1,17] - m[11,1,18] - m[11,1,19] - 50000 c[11,4,0.0] >= -50000
 R2692: c[11,4,-3.0] = 0
 R2693: - m[11,0,18] - m[11,0,19] - m[11,1,16] - m[11,1,17]
   - 50000 c[11,4,-2.0] >= -50003
 R2694: m[11,0,18] + 2 m[11,1,16] + 3 m[11,1,17] - 50000 c[11,4,-2.0]
   >= -49997
 R2695: 2 m[11,0,18] + 3 m[11,0,19] + 2 m[11,1,16] + m[11,1,17]
   - 50000 c[11,4,-2.0] >= -49996
 R2696: c[11,4,-1.41504] = 0
 R2697: - m[11,0,16] - 2 m[11,0,17] - 6649 m[11,0,18] + 6645 m[11,0,19]
   - 6645 m[11,1,16] - 4 m[11,1,17] - 2 m[11,1,18] - 3 m[11,1,19]
   - 50000 c[11,4,-1.0] >= -56656
 R2698: - 4 m[11,0,16] - 7 m[11,0,17] + 2 m[11,0,18] - m[11,0,19]
   - m[11,1,16] + 2 m[11,1,17] - 6 m[11,1,18] - 6 m[11,1,19]
   - 50000 c[11,4,-1.0] >= -50018
 R2699: 1898 m[11,0,16] + 2848 m[11,0,17] + 1901 m[11,0,18]
   - 6649 m[11,0,19] + 6647 m[11,1,16] - 5698 m[11,1,17] + 1899 m[11,1,18]
   + 2849 m[11,1,19] - 50000 c[11,4,-1.0] >= -50951
 R2700: - m[11,0,16] + 11 m[11,0,17] + 5 m[11,0,18] + 9 m[11,1,16]
   + 11 m[11,1,17] + 5 m[11,1,18] - 2 m[11,1,19] - 50000 c[11,4,-1.0]
   >= -49992
 R2701: - m[11,0,16] + 2 m[11,0,17] + 6649 m[11,0,18] - 6646 m[11,0,19]
   - 6647 m[11,1,17] - 2 m[11,1,18] + 3 m[11,1,19] - 50000 c[11,4,-1.0]
   >= -56647
 R2702: 3 m[11,0,16] + 3 m[11,0,17] + 7 m[11,0,18] + 7 m[11,0,19]
   + 4 m[11,1,17] - m[11,1,18] - m[11,1,19] - 50000 c[11,4,-1.0] >= -49995
 R2703: 4 m[11,0,16] - 6 m[11,0,17] + 15 m[11,0,18] + 2 m[11,0,19]
   - m[11,1,16] - 8 m[11,1,17] + 16 m[11,1,18] + 6 m[11,1,19]
   - 50000 c[11,4,-1.0] >= -49999
 R2704: 3 m[11,0,16] - 4 m[11,0,17] - 16 m[11,0,18] - 9 m[11,1,16]
   + 20 m[11,1,17] + 4 m[11,1,18] + 8 m[11,1,19] - 50000 c[11,4,-1.0]
   >= -50009
 R2705: c[11,5,0.0] + c[11,5,-3.0] + c[11,5,-2.0] + c[11,5,-1.41504]
   + c[11,5,-1.0] = 1
 R2706: - m[11,0,20] - m[11,0,21] - m[11,0,22] - m[11,0,23] - m[11,1,20]
   - m[11,1,21] - m[11,1,22] - m[11,1,23] - 50000 c[11,5,0.0] >= -50000
 R2707: c[11,5,-3.0] = 0
 R2708: - m[11,0,22] - m[11,0,23] - m[11,1,20] - m[11,1,21]
   - 50000 c[11,5,-2.0] >= -50003
 R2709: m[11,0,22] + 2 m[11,1,20] + 3 m[11,1,21] - 50000 c[11,5,-2.0]
   >= -49997
 R2710: 2 m[11,0,22] + 3 m[11,0,23] + 2 m[11,1,20] + m[11,1,21]
   - 50000 c[11,5,-2.0] >= -49996
 R2711: c[11,5,-1.41504] = 0
 R2712: - m[11,0,20] - 2 m[11,0,21] - 6649 m[11,0,22] + 6645 m[11,0,23]
   - 6645 m[11,1,20] - 4 m[11,1,21] - 2 m[11,1,22] - 3 m[11,1,23]
   - 50000 c[11,5,-1.0] >= -56656
 R2713: - 4 m[11,0,20] - 7 m[11,0,21] + 2 m[11,0,22] - m[11,0,23]
   - m[11,1,20] + 2 m[11,1,21] - 6 m[11,1,22] - 6 m[11,1,23]
   - 50000 c[11,5,-1.0] >= -50018
 R2714: 1898 m[11,0,20] + 2848 m[11,0,21] + 1901 m[11,0,22]
   - 6649 m[11,0,23] + 6647 m[11,1,20] - 5698 m[11,1,21] + 1899 m[11,1,22]
   + 2849 m[11,1,23] - 50000 c[11,5,-1.0] >= -50951
 R2715: - m[11,0,20] + 11 m[11,0,21] + 5 m[11,0,22] + 9 m[11,1,20]
   + 11 m[11,1,21] + 5 m[11,1,22] - 2 m[11,1,23] - 50000 c[11,5,-1.0]
   >= -49992
 R2716: - m[11,0,20] + 2 m[11,0,21] + 6649 m[11,0,22] - 6646 m[11,0,23]
   - 6647 m[11,1,21] - 2 m[11,1,22] + 3 m[11,1,23] - 50000 c[11,5,-1.0]
   >= -56647
 R2717: 3 m[11,0,20] + 3 m[11,0,21] + 7 m[11,0,22] + 7 m[11,0,23]
   + 4 m[11,1,21] - m[11,1,22] - m[11,1,23] - 50000 c[11,5,-1.0] >= -49995
 R2718: 4 m[11,0,20] - 6 m[11,0,21] + 15 m[11,0,22] + 2 m[11,0,23]
   - m[11,1,20] - 8 m[11,1,21] + 16 m[11,1,22] + 6 m[11,1,23]
   - 50000 c[11,5,-1.0] >= -49999
 R2719: 3 m[11,0,20] - 4 m[11,0,21] - 16 m[11,0,22] - 9 m[11,1,20]
   + 20 m[11,1,21] + 4 m[11,1,22] + 8 m[11,1,23] - 50000 c[11,5,-1.0]
   >= -50009
 R2720: c[11,6,0.0] + c[11,6,-3.0] + c[11,6,-2.0] + c[11,6,-1.41504]
   + c[11,6,-1.0] = 1
 R2721: - m[11,0,24] - m[11,0,25] - m[11,0,26] - m[11,0,27] - m[11,1,24]
   - m[11,1,25] - m[11,1,26] - m[11,1,27] - 50000 c[11,6,0.0] >= -50000
 R2722: c[11,6,-3.0] = 0
 R2723: - m[11,0,26] - m[11,0,27] - m[11,1,24] - m[11,1,25]
   - 50000 c[11,6,-2.0] >= -50003
 R2724: m[11,0,26] + 2 m[11,1,24] + 3 m[11,1,25] - 50000 c[11,6,-2.0]
   >= -49997
 R2725: 2 m[11,0,26] + 3 m[11,0,27] + 2 m[11,1,24] + m[11,1,25]
   - 50000 c[11,6,-2.0] >= -49996
 R2726: c[11,6,-1.41504] = 0
 R2727: - m[11,0,24] - 2 m[11,0,25] - 6649 m[11,0,26] + 6645 m[11,0,27]
   - 6645 m[11,1,24] - 4 m[11,1,25] - 2 m[11,1,26] - 3 m[11,1,27]
   - 50000 c[11,6,-1.0] >= -56656
 R2728: - 4 m[11,0,24] - 7 m[11,0,25] + 2 m[11,0,26] - m[11,0,27]
   - m[11,1,24] + 2 m[11,1,25] - 6 m[11,1,26] - 6 m[11,1,27]
   - 50000 c[11,6,-1.0] >= -50018
 R2729: 1898 m[11,0,24] + 2848 m[11,0,25] + 1901 m[11,0,26]
   - 6649 m[11,0,27] + 6647 m[11,1,24] - 5698 m[11,1,25] + 1899 m[11,1,26]
   + 2849 m[11,1,27] - 50000 c[11,6,-1.0] >= -50951
 R2730: - m[11,0,24] + 11 m[11,0,25] + 5 m[11,0,26] + 9 m[11,1,24]
   + 11 m[11,1,25] + 5 m[11,1,26] - 2 m[11,1,27] - 50000 c[11,6,-1.0]
   >= -49992
 R2731: - m[11,0,24] + 2 m[11,0,25] + 6649 m[11,0,26] - 6646 m[11,0,27]
   - 6647 m[11,1,25] - 2 m[11,1,26] + 3 m[11,1,27] - 50000 c[11,6,-1.0]
   >= -56647
 R2732: 3 m[11,0,24] + 3 m[11,0,25] + 7 m[11,0,26] + 7 m[11,0,27]
   + 4 m[11,1,25] - m[11,1,26] - m[11,1,27] - 50000 c[11,6,-1.0] >= -49995
 R2733: 4 m[11,0,24] - 6 m[11,0,25] + 15 m[11,0,26] + 2 m[11,0,27]
   - m[11,1,24] - 8 m[11,1,25] + 16 m[11,1,26] + 6 m[11,1,27]
   - 50000 c[11,6,-1.0] >= -49999
 R2734: 3 m[11,0,24] - 4 m[11,0,25] - 16 m[11,0,26] - 9 m[11,1,24]
   + 20 m[11,1,25] + 4 m[11,1,26] + 8 m[11,1,27] - 50000 c[11,6,-1.0]
   >= -50009
 R2735: c[11,7,0.0] + c[11,7,-3.0] + c[11,7,-2.0] + c[11,7,-1.41504]
   + c[11,7,-1.0] = 1
 R2736: - m[11,0,28] - m[11,0,29] - m[11,0,30] - m[11,0,31] - m[11,1,28]
   - m[11,1,29] - m[11,1,30] - m[11,1,31] - 50000 c[11,7,0.0] >= -50000
 R2737: c[11,7,-3.0] = 0
 R2738: - m[11,0,30] - m[11,0,31] - m[11,1,28] - m[11,1,29]
   - 50000 c[11,7,-2.0] >= -50003
 R2739: m[11,0,30] + 2 m[11,1,28] + 3 m[11,1,29] - 50000 c[11,7,-2.0]
   >= -49997
 R2740: 2 m[11,0,30] + 3 m[11,0,31] + 2 m[11,1,28] + m[11,1,29]
   - 50000 c[11,7,-2.0] >= -49996
 R2741: c[11,7,-1.41504] = 0
 R2742: - m[11,0,28] - 2 m[11,0,29] - 6649 m[11,0,30] + 6645 m[11,0,31]
   - 6645 m[11,1,28] - 4 m[11,1,29] - 2 m[11,1,30] - 3 m[11,1,31]
   - 50000 c[11,7,-1.0] >= -56656
 R2743: - 4 m[11,0,28] - 7 m[11,0,29] + 2 m[11,0,30] - m[11,0,31]
   - m[11,1,28] + 2 m[11,1,29] - 6 m[11,1,30] - 6 m[11,1,31]
   - 50000 c[11,7,-1.0] >= -50018
 R2744: 1898 m[11,0,28] + 2848 m[11,0,29] + 1901 m[11,0,30]
   - 6649 m[11,0,31] + 6647 m[11,1,28] - 5698 m[11,1,29] + 1899 m[11,1,30]
   + 2849 m[11,1,31] - 50000 c[11,7,-1.0] >= -50951
 R2745: - m[11,0,28] + 11 m[11,0,29] + 5 m[11,0,30] + 9 m[11,1,28]
   + 11 m[11,1,29] + 5 m[11,1,30] - 2 m[11,1,31] - 50000 c[11,7,-1.0]
   >= -49992
 R2746: - m[11,0,28] + 2 m[11,0,29] + 6649 m[11,0,30] - 6646 m[11,0,31]
   - 6647 m[11,1,29] - 2 m[11,1,30] + 3 m[11,1,31] - 50000 c[11,7,-1.0]
   >= -56647
 R2747: 3 m[11,0,28] + 3 m[11,0,29] + 7 m[11,0,30] + 7 m[11,0,31]
   + 4 m[11,1,29] - m[11,1,30] - m[11,1,31] - 50000 c[11,7,-1.0] >= -49995
 R2748: 4 m[11,0,28] - 6 m[11,0,29] + 15 m[11,0,30] + 2 m[11,0,31]
   - m[11,1,28] - 8 m[11,1,29] + 16 m[11,1,30] + 6 m[11,1,31]
   - 50000 c[11,7,-1.0] >= -49999
 R2749: 3 m[11,0,28] - 4 m[11,0,29] - 16 m[11,0,30] - 9 m[11,1,28]
   + 20 m[11,1,29] + 4 m[11,1,30] + 8 m[11,1,31] - 50000 c[11,7,-1.0]
   >= -50009
 R2750: c[11,8,0.0] + c[11,8,-3.0] + c[11,8,-2.0] + c[11,8,-1.41504]
   + c[11,8,-1.0] = 1
 R2751: - m[11,0,32] - m[11,0,33] - m[11,0,34] - m[11,0,35] - m[11,1,32]
   - m[11,1,33] - m[11,1,34] - m[11,1,35] - 50000 c[11,8,0.0] >= -50000
 R2752: c[11,8,-3.0] = 0
 R2753: - m[11,0,34] - m[11,0,35] - m[11,1,32] - m[11,1,33]
   - 50000 c[11,8,-2.0] >= -50003
 R2754: m[11,0,34] + 2 m[11,1,32] + 3 m[11,1,33] - 50000 c[11,8,-2.0]
   >= -49997
 R2755: 2 m[11,0,34] + 3 m[11,0,35] + 2 m[11,1,32] + m[11,1,33]
   - 50000 c[11,8,-2.0] >= -49996
 R2756: c[11,8,-1.41504] = 0
 R2757: - m[11,0,32] - 2 m[11,0,33] - 6649 m[11,0,34] + 6645 m[11,0,35]
   - 6645 m[11,1,32] - 4 m[11,1,33] - 2 m[11,1,34] - 3 m[11,1,35]
   - 50000 c[11,8,-1.0] >= -56656
 R2758: - 4 m[11,0,32] - 7 m[11,0,33] + 2 m[11,0,34] - m[11,0,35]
   - m[11,1,32] + 2 m[11,1,33] - 6 m[11,1,34] - 6 m[11,1,35]
   - 50000 c[11,8,-1.0] >= -50018
 R2759: 1898 m[11,0,32] + 2848 m[11,0,33] + 1901 m[11,0,34]
   - 6649 m[11,0,35] + 6647 m[11,1,32] - 5698 m[11,1,33] + 1899 m[11,1,34]
   + 2849 m[11,1,35] - 50000 c[11,8,-1.0] >= -50951
 R2760: - m[11,0,32] + 11 m[11,0,33] + 5 m[11,0,34] + 9 m[11,1,32]
   + 11 m[11,1,33] + 5 m[11,1,34] - 2 m[11,1,35] - 50000 c[11,8,-1.0]
   >= -49992
 R2761: - m[11,0,32] + 2 m[11,0,33] + 6649 m[11,0,34] - 6646 m[11,0,35]
   - 6647 m[11,1,33] - 2 m[11,1,34] + 3 m[11,1,35] - 50000 c[11,8,-1.0]
   >= -56647
 R2762: 3 m[11,0,32] + 3 m[11,0,33] + 7 m[11,0,34] + 7 m[11,0,35]
   + 4 m[11,1,33] - m[11,1,34] - m[11,1,35] - 50000 c[11,8,-1.0] >= -49995
 R2763: 4 m[11,0,32] - 6 m[11,0,33] + 15 m[11,0,34] + 2 m[11,0,35]
   - m[11,1,32] - 8 m[11,1,33] + 16 m[11,1,34] + 6 m[11,1,35]
   - 50000 c[11,8,-1.0] >= -49999
 R2764: 3 m[11,0,32] - 4 m[11,0,33] - 16 m[11,0,34] - 9 m[11,1,32]
   + 20 m[11,1,33] + 4 m[11,1,34] + 8 m[11,1,35] - 50000 c[11,8,-1.0]
   >= -50009
 R2765: c[11,9,0.0] + c[11,9,-3.0] + c[11,9,-2.0] + c[11,9,-1.41504]
   + c[11,9,-1.0] = 1
 R2766: - m[11,0,36] - m[11,0,37] - m[11,0,38] - m[11,0,39] - m[11,1,36]
   - m[11,1,37] - m[11,1,38] - m[11,1,39] - 50000 c[11,9,0.0] >= -50000
 R2767: c[11,9,-3.0] = 0
 R2768: - m[11,0,38] - m[11,0,39] - m[11,1,36] - m[11,1,37]
   - 50000 c[11,9,-2.0] >= -50003
 R2769: m[11,0,38] + 2 m[11,1,36] + 3 m[11,1,37] - 50000 c[11,9,-2.0]
   >= -49997
 R2770: 2 m[11,0,38] + 3 m[11,0,39] + 2 m[11,1,36] + m[11,1,37]
   - 50000 c[11,9,-2.0] >= -49996
 R2771: c[11,9,-1.41504] = 0
 R2772: - m[11,0,36] - 2 m[11,0,37] - 6649 m[11,0,38] + 6645 m[11,0,39]
   - 6645 m[11,1,36] - 4 m[11,1,37] - 2 m[11,1,38] - 3 m[11,1,39]
   - 50000 c[11,9,-1.0] >= -56656
 R2773: - 4 m[11,0,36] - 7 m[11,0,37] + 2 m[11,0,38] - m[11,0,39]
   - m[11,1,36] + 2 m[11,1,37] - 6 m[11,1,38] - 6 m[11,1,39]
   - 50000 c[11,9,-1.0] >= -50018
 R2774: 1898 m[11,0,36] + 2848 m[11,0,37] + 1901 m[11,0,38]
   - 6649 m[11,0,39] + 6647 m[11,1,36] - 5698 m[11,1,37] + 1899 m[11,1,38]
   + 2849 m[11,1,39] - 50000 c[11,9,-1.0] >= -50951
 R2775: - m[11,0,36] + 11 m[11,0,37] + 5 m[11,0,38] + 9 m[11,1,36]
   + 11 m[11,1,37] + 5 m[11,1,38] - 2 m[11,1,39] - 50000 c[11,9,-1.0]
   >= -49992
 R2776: - m[11,0,36] + 2 m[11,0,37] + 6649 m[11,0,38] - 6646 m[11,0,39]
   - 6647 m[11,1,37] - 2 m[11,1,38] + 3 m[11,1,39] - 50000 c[11,9,-1.0]
   >= -56647
 R2777: 3 m[11,0,36] + 3 m[11,0,37] + 7 m[11,0,38] + 7 m[11,0,39]
   + 4 m[11,1,37] - m[11,1,38] - m[11,1,39] - 50000 c[11,9,-1.0] >= -49995
 R2778: 4 m[11,0,36] - 6 m[11,0,37] + 15 m[11,0,38] + 2 m[11,0,39]
   - m[11,1,36] - 8 m[11,1,37] + 16 m[11,1,38] + 6 m[11,1,39]
   - 50000 c[11,9,-1.0] >= -49999
 R2779: 3 m[11,0,36] - 4 m[11,0,37] - 16 m[11,0,38] - 9 m[11,1,36]
   + 20 m[11,1,37] + 4 m[11,1,38] + 8 m[11,1,39] - 50000 c[11,9,-1.0]
   >= -50009
 R2780: c[11,10,0.0] + c[11,10,-3.0] + c[11,10,-2.0] + c[11,10,-1.41504]
   + c[11,10,-1.0] = 1
 R2781: - m[11,0,40] - m[11,0,41] - m[11,0,42] - m[11,0,43] - m[11,1,40]
   - m[11,1,41] - m[11,1,42] - m[11,1,43] - 50000 c[11,10,0.0] >= -50000
 R2782: c[11,10,-3.0] = 0
 R2783: - m[11,0,42] - m[11,0,43] - m[11,1,40] - m[11,1,41]
   - 50000 c[11,10,-2.0] >= -50003
 R2784: m[11,0,42] + 2 m[11,1,40] + 3 m[11,1,41] - 50000 c[11,10,-2.0]
   >= -49997
 R2785: 2 m[11,0,42] + 3 m[11,0,43] + 2 m[11,1,40] + m[11,1,41]
   - 50000 c[11,10,-2.0] >= -49996
 R2786: c[11,10,-1.41504] = 0
 R2787: - m[11,0,40] - 2 m[11,0,41] - 6649 m[11,0,42] + 6645 m[11,0,43]
   - 6645 m[11,1,40] - 4 m[11,1,41] - 2 m[11,1,42] - 3 m[11,1,43]
   - 50000 c[11,10,-1.0] >= -56656
 R2788: - 4 m[11,0,40] - 7 m[11,0,41] + 2 m[11,0,42] - m[11,0,43]
   - m[11,1,40] + 2 m[11,1,41] - 6 m[11,1,42] - 6 m[11,1,43]
   - 50000 c[11,10,-1.0] >= -50018
 R2789: 1898 m[11,0,40] + 2848 m[11,0,41] + 1901 m[11,0,42]
   - 6649 m[11,0,43] + 6647 m[11,1,40] - 5698 m[11,1,41] + 1899 m[11,1,42]
   + 2849 m[11,1,43] - 50000 c[11,10,-1.0] >= -50951
 R2790: - m[11,0,40] + 11 m[11,0,41] + 5 m[11,0,42] + 9 m[11,1,40]
   + 11 m[11,1,41] + 5 m[11,1,42] - 2 m[11,1,43] - 50000 c[11,10,-1.0]
   >= -49992
 R2791: - m[11,0,40] + 2 m[11,0,41] + 6649 m[11,0,42] - 6646 m[11,0,43]
   - 6647 m[11,1,41] - 2 m[11,1,42] + 3 m[11,1,43] - 50000 c[11,10,-1.0]
   >= -56647
 R2792: 3 m[11,0,40] + 3 m[11,0,41] + 7 m[11,0,42] + 7 m[11,0,43]
   + 4 m[11,1,41] - m[11,1,42] - m[11,1,43] - 50000 c[11,10,-1.0]
   >= -49995
 R2793: 4 m[11,0,40] - 6 m[11,0,41] + 15 m[11,0,42] + 2 m[11,0,43]
   - m[11,1,40] - 8 m[11,1,41] + 16 m[11,1,42] + 6 m[11,1,43]
   - 50000 c[11,10,-1.0] >= -49999
 R2794: 3 m[11,0,40] - 4 m[11,0,41] - 16 m[11,0,42] - 9 m[11,1,40]
   + 20 m[11,1,41] + 4 m[11,1,42] + 8 m[11,1,43] - 50000 c[11,10,-1.0]
   >= -50009
 R2795: c[11,11,0.0] + c[11,11,-3.0] + c[11,11,-2.0] + c[11,11,-1.41504]
   + c[11,11,-1.0] = 1
 R2796: - m[11,0,44] - m[11,0,45] - m[11,0,46] - m[11,0,47] - m[11,1,44]
   - m[11,1,45] - m[11,1,46] - m[11,1,47] - 50000 c[11,11,0.0] >= -50000
 R2797: c[11,11,-3.0] = 0
 R2798: - m[11,0,46] - m[11,0,47] - m[11,1,44] - m[11,1,45]
   - 50000 c[11,11,-2.0] >= -50003
 R2799: m[11,0,46] + 2 m[11,1,44] + 3 m[11,1,45] - 50000 c[11,11,-2.0]
   >= -49997
 R2800: 2 m[11,0,46] + 3 m[11,0,47] + 2 m[11,1,44] + m[11,1,45]
   - 50000 c[11,11,-2.0] >= -49996
 R2801: c[11,11,-1.41504] = 0
 R2802: - m[11,0,44] - 2 m[11,0,45] - 6649 m[11,0,46] + 6645 m[11,0,47]
   - 6645 m[11,1,44] - 4 m[11,1,45] - 2 m[11,1,46] - 3 m[11,1,47]
   - 50000 c[11,11,-1.0] >= -56656
 R2803: - 4 m[11,0,44] - 7 m[11,0,45] + 2 m[11,0,46] - m[11,0,47]
   - m[11,1,44] + 2 m[11,1,45] - 6 m[11,1,46] - 6 m[11,1,47]
   - 50000 c[11,11,-1.0] >= -50018
 R2804: 1898 m[11,0,44] + 2848 m[11,0,45] + 1901 m[11,0,46]
   - 6649 m[11,0,47] + 6647 m[11,1,44] - 5698 m[11,1,45] + 1899 m[11,1,46]
   + 2849 m[11,1,47] - 50000 c[11,11,-1.0] >= -50951
 R2805: - m[11,0,44] + 11 m[11,0,45] + 5 m[11,0,46] + 9 m[11,1,44]
   + 11 m[11,1,45] + 5 m[11,1,46] - 2 m[11,1,47] - 50000 c[11,11,-1.0]
   >= -49992
 R2806: - m[11,0,44] + 2 m[11,0,45] + 6649 m[11,0,46] - 6646 m[11,0,47]
   - 6647 m[11,1,45] - 2 m[11,1,46] + 3 m[11,1,47] - 50000 c[11,11,-1.0]
   >= -56647
 R2807: 3 m[11,0,44] + 3 m[11,0,45] + 7 m[11,0,46] + 7 m[11,0,47]
   + 4 m[11,1,45] - m[11,1,46] - m[11,1,47] - 50000 c[11,11,-1.0]
   >= -49995
 R2808: 4 m[11,0,44] - 6 m[11,0,45] + 15 m[11,0,46] + 2 m[11,0,47]
   - m[11,1,44] - 8 m[11,1,45] + 16 m[11,1,46] + 6 m[11,1,47]
   - 50000 c[11,11,-1.0] >= -49999
 R2809: 3 m[11,0,44] - 4 m[11,0,45] - 16 m[11,0,46] - 9 m[11,1,44]
   + 20 m[11,1,45] + 4 m[11,1,46] + 8 m[11,1,47] - 50000 c[11,11,-1.0]
   >= -50009
 R2810: c[11,12,0.0] + c[11,12,-3.0] + c[11,12,-2.0] + c[11,12,-1.41504]
   + c[11,12,-1.0] = 1
 R2811: - m[11,0,48] - m[11,0,49] - m[11,0,50] - m[11,0,51] - m[11,1,48]
   - m[11,1,49] - m[11,1,50] - m[11,1,51] - 50000 c[11,12,0.0] >= -50000
 R2812: c[11,12,-3.0] = 0
 R2813: - m[11,0,50] - m[11,0,51] - m[11,1,48] - m[11,1,49]
   - 50000 c[11,12,-2.0] >= -50003
 R2814: m[11,0,50] + 2 m[11,1,48] + 3 m[11,1,49] - 50000 c[11,12,-2.0]
   >= -49997
 R2815: 2 m[11,0,50] + 3 m[11,0,51] + 2 m[11,1,48] + m[11,1,49]
   - 50000 c[11,12,-2.0] >= -49996
 R2816: c[11,12,-1.41504] = 0
 R2817: - m[11,0,48] - 2 m[11,0,49] - 6649 m[11,0,50] + 6645 m[11,0,51]
   - 6645 m[11,1,48] - 4 m[11,1,49] - 2 m[11,1,50] - 3 m[11,1,51]
   - 50000 c[11,12,-1.0] >= -56656
 R2818: - 4 m[11,0,48] - 7 m[11,0,49] + 2 m[11,0,50] - m[11,0,51]
   - m[11,1,48] + 2 m[11,1,49] - 6 m[11,1,50] - 6 m[11,1,51]
   - 50000 c[11,12,-1.0] >= -50018
 R2819: 1898 m[11,0,48] + 2848 m[11,0,49] + 1901 m[11,0,50]
   - 6649 m[11,0,51] + 6647 m[11,1,48] - 5698 m[11,1,49] + 1899 m[11,1,50]
   + 2849 m[11,1,51] - 50000 c[11,12,-1.0] >= -50951
 R2820: - m[11,0,48] + 11 m[11,0,49] + 5 m[11,0,50] + 9 m[11,1,48]
   + 11 m[11,1,49] + 5 m[11,1,50] - 2 m[11,1,51] - 50000 c[11,12,-1.0]
   >= -49992
 R2821: - m[11,0,48] + 2 m[11,0,49] + 6649 m[11,0,50] - 6646 m[11,0,51]
   - 6647 m[11,1,49] - 2 m[11,1,50] + 3 m[11,1,51] - 50000 c[11,12,-1.0]
   >= -56647
 R2822: 3 m[11,0,48] + 3 m[11,0,49] + 7 m[11,0,50] + 7 m[11,0,51]
   + 4 m[11,1,49] - m[11,1,50] - m[11,1,51] - 50000 c[11,12,-1.0]
   >= -49995
 R2823: 4 m[11,0,48] - 6 m[11,0,49] + 15 m[11,0,50] + 2 m[11,0,51]
   - m[11,1,48] - 8 m[11,1,49] + 16 m[11,1,50] + 6 m[11,1,51]
   - 50000 c[11,12,-1.0] >= -49999
 R2824: 3 m[11,0,48] - 4 m[11,0,49] - 16 m[11,0,50] - 9 m[11,1,48]
   + 20 m[11,1,49] + 4 m[11,1,50] + 8 m[11,1,51] - 50000 c[11,12,-1.0]
   >= -50009
 R2825: c[11,13,0.0] + c[11,13,-3.0] + c[11,13,-2.0] + c[11,13,-1.41504]
   + c[11,13,-1.0] = 1
 R2826: - m[11,0,52] - m[11,0,53] - m[11,0,54] - m[11,0,55] - m[11,1,52]
   - m[11,1,53] - m[11,1,54] - m[11,1,55] - 50000 c[11,13,0.0] >= -50000
 R2827: c[11,13,-3.0] = 0
 R2828: - m[11,0,54] - m[11,0,55] - m[11,1,52] - m[11,1,53]
   - 50000 c[11,13,-2.0] >= -50003
 R2829: m[11,0,54] + 2 m[11,1,52] + 3 m[11,1,53] - 50000 c[11,13,-2.0]
   >= -49997
 R2830: 2 m[11,0,54] + 3 m[11,0,55] + 2 m[11,1,52] + m[11,1,53]
   - 50000 c[11,13,-2.0] >= -49996
 R2831: c[11,13,-1.41504] = 0
 R2832: - m[11,0,52] - 2 m[11,0,53] - 6649 m[11,0,54] + 6645 m[11,0,55]
   - 6645 m[11,1,52] - 4 m[11,1,53] - 2 m[11,1,54] - 3 m[11,1,55]
   - 50000 c[11,13,-1.0] >= -56656
 R2833: - 4 m[11,0,52] - 7 m[11,0,53] + 2 m[11,0,54] - m[11,0,55]
   - m[11,1,52] + 2 m[11,1,53] - 6 m[11,1,54] - 6 m[11,1,55]
   - 50000 c[11,13,-1.0] >= -50018
 R2834: 1898 m[11,0,52] + 2848 m[11,0,53] + 1901 m[11,0,54]
   - 6649 m[11,0,55] + 6647 m[11,1,52] - 5698 m[11,1,53] + 1899 m[11,1,54]
   + 2849 m[11,1,55] - 50000 c[11,13,-1.0] >= -50951
 R2835: - m[11,0,52] + 11 m[11,0,53] + 5 m[11,0,54] + 9 m[11,1,52]
   + 11 m[11,1,53] + 5 m[11,1,54] - 2 m[11,1,55] - 50000 c[11,13,-1.0]
   >= -49992
 R2836: - m[11,0,52] + 2 m[11,0,53] + 6649 m[11,0,54] - 6646 m[11,0,55]
   - 6647 m[11,1,53] - 2 m[11,1,54] + 3 m[11,1,55] - 50000 c[11,13,-1.0]
   >= -56647
 R2837: 3 m[11,0,52] + 3 m[11,0,53] + 7 m[11,0,54] + 7 m[11,0,55]
   + 4 m[11,1,53] - m[11,1,54] - m[11,1,55] - 50000 c[11,13,-1.0]
   >= -49995
 R2838: 4 m[11,0,52] - 6 m[11,0,53] + 15 m[11,0,54] + 2 m[11,0,55]
   - m[11,1,52] - 8 m[11,1,53] + 16 m[11,1,54] + 6 m[11,1,55]
   - 50000 c[11,13,-1.0] >= -49999
 R2839: 3 m[11,0,52] - 4 m[11,0,53] - 16 m[11,0,54] - 9 m[11,1,52]
   + 20 m[11,1,53] + 4 m[11,1,54] + 8 m[11,1,55] - 50000 c[11,13,-1.0]
   >= -50009
 R2840: c[11,14,0.0] + c[11,14,-3.0] + c[11,14,-2.0] + c[11,14,-1.41504]
   + c[11,14,-1.0] = 1
 R2841: - m[11,0,56] - m[11,0,57] - m[11,0,58] - m[11,0,59] - m[11,1,56]
   - m[11,1,57] - m[11,1,58] - m[11,1,59] - 50000 c[11,14,0.0] >= -50000
 R2842: c[11,14,-3.0] = 0
 R2843: - m[11,0,58] - m[11,0,59] - m[11,1,56] - m[11,1,57]
   - 50000 c[11,14,-2.0] >= -50003
 R2844: m[11,0,58] + 2 m[11,1,56] + 3 m[11,1,57] - 50000 c[11,14,-2.0]
   >= -49997
 R2845: 2 m[11,0,58] + 3 m[11,0,59] + 2 m[11,1,56] + m[11,1,57]
   - 50000 c[11,14,-2.0] >= -49996
 R2846: c[11,14,-1.41504] = 0
 R2847: - m[11,0,56] - 2 m[11,0,57] - 6649 m[11,0,58] + 6645 m[11,0,59]
   - 6645 m[11,1,56] - 4 m[11,1,57] - 2 m[11,1,58] - 3 m[11,1,59]
   - 50000 c[11,14,-1.0] >= -56656
 R2848: - 4 m[11,0,56] - 7 m[11,0,57] + 2 m[11,0,58] - m[11,0,59]
   - m[11,1,56] + 2 m[11,1,57] - 6 m[11,1,58] - 6 m[11,1,59]
   - 50000 c[11,14,-1.0] >= -50018
 R2849: 1898 m[11,0,56] + 2848 m[11,0,57] + 1901 m[11,0,58]
   - 6649 m[11,0,59] + 6647 m[11,1,56] - 5698 m[11,1,57] + 1899 m[11,1,58]
   + 2849 m[11,1,59] - 50000 c[11,14,-1.0] >= -50951
 R2850: - m[11,0,56] + 11 m[11,0,57] + 5 m[11,0,58] + 9 m[11,1,56]
   + 11 m[11,1,57] + 5 m[11,1,58] - 2 m[11,1,59] - 50000 c[11,14,-1.0]
   >= -49992
 R2851: - m[11,0,56] + 2 m[11,0,57] + 6649 m[11,0,58] - 6646 m[11,0,59]
   - 6647 m[11,1,57] - 2 m[11,1,58] + 3 m[11,1,59] - 50000 c[11,14,-1.0]
   >= -56647
 R2852: 3 m[11,0,56] + 3 m[11,0,57] + 7 m[11,0,58] + 7 m[11,0,59]
   + 4 m[11,1,57] - m[11,1,58] - m[11,1,59] - 50000 c[11,14,-1.0]
   >= -49995
 R2853: 4 m[11,0,56] - 6 m[11,0,57] + 15 m[11,0,58] + 2 m[11,0,59]
   - m[11,1,56] - 8 m[11,1,57] + 16 m[11,1,58] + 6 m[11,1,59]
   - 50000 c[11,14,-1.0] >= -49999
 R2854: 3 m[11,0,56] - 4 m[11,0,57] - 16 m[11,0,58] - 9 m[11,1,56]
   + 20 m[11,1,57] + 4 m[11,1,58] + 8 m[11,1,59] - 50000 c[11,14,-1.0]
   >= -50009
 R2855: c[11,15,0.0] + c[11,15,-3.0] + c[11,15,-2.0] + c[11,15,-1.41504]
   + c[11,15,-1.0] = 1
 R2856: c[11,15,0.0] = 0
 R2857: - m[11,0,63] - m[11,1,60] - m[11,1,62] - 50000 c[11,15,-3.0]
   >= -50002
 R2858: m[11,0,63] - m[11,1,60] + m[11,1,62] - 50000 c[11,15,-3.0]
   >= -50000
 R2859: m[11,0,63] + m[11,1,60] - m[11,1,62] - 50000 c[11,15,-3.0]
   >= -50000
 R2860: - m[11,0,63] + m[11,1,60] + m[11,1,62] - 50000 c[11,15,-3.0]
   >= -50000
 R2861: c[11,15,-2.0] = 0
 R2862: c[11,15,-1.41504] = 0
 R2863: c[11,15,-1.0] = 0
 R2864: m[0,1,0] - m[1,0,48] = 0
 R2865: m[0,1,1] - m[1,0,1] = 0
 R2866: m[0,1,2] - m[1,0,18] = 0
 R2867: m[0,1,3] - m[1,0,35] = 0
 R2868: m[0,1,4] - m[1,0,32] = 0
 R2869: m[0,1,5] - m[1,0,49] = 0
 R2870: m[0,1,6] - m[1,0,2] = 0
 R2871: m[0,1,7] - m[1,0,19] = 0
 R2872: m[0,1,8] - m[1,0,16] = 0
 R2873: m[0,1,9] - m[1,0,33] = 0
 R2874: m[0,1,10] - m[1,0,50] = 0
 R2875: m[0,1,11] - m[1,0,3] = 0
 R2876: m[0,1,12] - m[1,0,0] = 0
 R2877: m[0,1,13] - m[1,0,17] = 0
 R2878: m[0,1,14] - m[1,0,34] = 0
 R2879: m[0,1,15] - m[1,0,51] = 0
 R2880: m[0,1,16] - m[1,0,52] = 0
 R2881: m[0,1,17] - m[1,0,5] = 0
 R2882: m[0,1,18] - m[1,0,22] = 0
 R2883: m[0,1,19] - m[1,0,39] = 0
 R2884: m[0,1,20] - m[1,0,36] = 0
 R2885: m[0,1,21] - m[1,0,53] = 0
 R2886: m[0,1,22] - m[1,0,6] = 0
 R2887: m[0,1,23] - m[1,0,23] = 0
 R2888: m[0,1,24] - m[1,0,20] = 0
 R2889: m[0,1,25] - m[1,0,37] = 0
 R2890: m[0,1,26] - m[1,0,54] = 0
 R2891: m[0,1,27] - m[1,0,7] = 0
 R2892: m[0,1,28] - m[1,0,4] = 0
 R2893: m[0,1,29] - m[1,0,21] = 0
 R2894: m[0,1,30] - m[1,0,38] = 0
 R2895: m[0,1,31] - m[1,0,55] = 0
 R2896: m[0,1,32] - m[1,0,56] = 0
 R2897: m[0,1,33] - m[1,0,9] = 0
 R2898: m[0,1,34] - m[1,0,26] = 0
 R2899: m[0,1,35] - m[1,0,43] = 0
 R2900: m[0,1,36] - m[1,0,40] = 0
 R2901: m[0,1,37] - m[1,0,57] = 0
 R2902: m[0,1,38] - m[1,0,10] = 0
 R2903: m[0,1,39] - m[1,0,27] = 0
 R2904: m[0,1,40] - m[1,0,24] = 0
 R2905: m[0,1,41] - m[1,0,41] = 0
 R2906: m[0,1,42] - m[1,0,58] = 0
 R2907: m[0,1,43] - m[1,0,11] = 0
 R2908: m[0,1,44] - m[1,0,8] = 0
 R2909: m[0,1,45] - m[1,0,25] = 0
 R2910: m[0,1,46] - m[1,0,42] = 0
 R2911: m[0,1,47] - m[1,0,59] = 0
 R2912: m[0,1,48] - m[1,0,60] = 0
 R2913: m[0,1,49] - m[1,0,13] = 0
 R2914: m[0,1,50] - m[1,0,30] = 0
 R2915: m[0,1,51] - m[1,0,47] = 0
 R2916: m[0,1,52] - m[1,0,44] = 0
 R2917: m[0,1,53] - m[1,0,61] = 0
 R2918: m[0,1,54] - m[1,0,14] = 0
 R2919: m[0,1,55] - m[1,0,31] = 0
 R2920: m[0,1,56] - m[1,0,28] = 0
 R2921: m[0,1,57] - m[1,0,45] = 0
 R2922: m[0,1,58] - m[1,0,62] = 0
 R2923: m[0,1,59] - m[1,0,15] = 0
 R2924: m[0,1,60] - m[1,0,12] = 0
 R2925: m[0,1,61] - m[1,0,29] = 0
 R2926: m[0,1,62] - m[1,0,46] = 0
 R2927: m[0,1,63] - m[1,0,63] = 0
 R2928: m[1,1,0] - m[2,0,48] = 0
 R2929: m[1,1,1] - m[2,0,1] = 0
 R2930: m[1,1,2] - m[2,0,18] = 0
 R2931: m[1,1,3] - m[2,0,35] = 0
 R2932: m[1,1,4] - m[2,0,32] = 0
 R2933: m[1,1,5] - m[2,0,49] = 0
 R2934: m[1,1,6] - m[2,0,2] = 0
 R2935: m[1,1,7] - m[2,0,19] = 0
 R2936: m[1,1,8] - m[2,0,16] = 0
 R2937: m[1,1,9] - m[2,0,33] = 0
 R2938: m[1,1,10] - m[2,0,50] = 0
 R2939: m[1,1,11] - m[2,0,3] = 0
 R2940: m[1,1,12] - m[2,0,0] = 0
 R2941: m[1,1,13] - m[2,0,17] = 0
 R2942: m[1,1,14] - m[2,0,34] = 0
 R2943: m[1,1,15] - m[2,0,51] = 0
 R2944: m[1,1,16] - m[2,0,52] = 0
 R2945: m[1,1,17] - m[2,0,5] = 0
 R2946: m[1,1,18] - m[2,0,22] = 0
 R2947: m[1,1,19] - m[2,0,39] = 0
 R2948: m[1,1,20] - m[2,0,36] = 0
 R2949: m[1,1,21] - m[2,0,53] = 0
 R2950: m[1,1,22] - m[2,0,6] = 0
 R2951: m[1,1,23] - m[2,0,23] = 0
 R2952: m[1,1,24] - m[2,0,20] = 0
 R2953: m[1,1,25] - m[2,0,37] = 0
 R2954: m[1,1,26] - m[2,0,54] = 0
 R2955: m[1,1,27] - m[2,0,7] = 0
 R2956: m[1,1,28] - m[2,0,4] = 0
 R2957: m[1,1,29] - m[2,0,21] = 0
 R2958: m[1,1,30] - m[2,0,38] = 0
 R2959: m[1,1,31] - m[2,0,55] = 0
 R2960: m[1,1,32] - m[2,0,56] = 0
 R2961: m[1,1,33] - m[2,0,9] = 0
 R2962: m[1,1,34] - m[2,0,26] = 0
 R2963: m[1,1,35] - m[2,0,43] = 0
 R2964: m[1,1,36] - m[2,0,40] = 0
 R2965: m[1,1,37] - m[2,0,57] = 0
 R2966: m[1,1,38] - m[2,0,10] = 0
 R2967: m[1,1,39] - m[2,0,27] = 0
 R2968: m[1,1,40] - m[2,0,24] = 0
 R2969: m[1,1,41] - m[2,0,41] = 0
 R2970: m[1,1,42] - m[2,0,58] = 0
 R2971: m[1,1,43] - m[2,0,11] = 0
 R2972: m[1,1,44] - m[2,0,8] = 0
 R2973: m[1,1,45] - m[2,0,25] = 0
 R2974: m[1,1,46] - m[2,0,42] = 0
 R2975: m[1,1,47] - m[2,0,59] = 0
 R2976: m[1,1,48] - m[2,0,60] = 0
 R2977: m[1,1,49] - m[2,0,13] = 0
 R2978: m[1,1,50] - m[2,0,30] = 0
 R2979: m[1,1,51] - m[2,0,47] = 0
 R2980: m[1,1,52] - m[2,0,44] = 0
 R2981: m[1,1,53] - m[2,0,61] = 0
 R2982: m[1,1,54] - m[2,0,14] = 0
 R2983: m[1,1,55] - m[2,0,31] = 0
 R2984: m[1,1,56] - m[2,0,28] = 0
 R2985: m[1,1,57] - m[2,0,45] = 0
 R2986: m[1,1,58] - m[2,0,62] = 0
 R2987: m[1,1,59] - m[2,0,15] = 0
 R2988: m[1,1,60] - m[2,0,12] = 0
 R2989: m[1,1,61] - m[2,0,29] = 0
 R2990: m[1,1,62] - m[2,0,46] = 0
 R2991: m[1,1,63] - m[2,0,63] = 0
 R2992: m[2,1,0] - m[3,0,48] = 0
 R2993: m[2,1,1] - m[3,0,1] = 0
 R2994: m[2,1,2] - m[3,0,18] = 0
 R2995: m[2,1,3] - m[3,0,35] = 0
 R2996: m[2,1,4] - m[3,0,32] = 0
 R2997: m[2,1,5] - m[3,0,49] = 0
 R2998: m[2,1,6] - m[3,0,2] = 0
 R2999: m[2,1,7] - m[3,0,19] = 0
 R3000: m[2,1,8] - m[3,0,16] = 0
 R3001: m[2,1,9] - m[3,0,33] = 0
 R3002: m[2,1,10] - m[3,0,50] = 0
 R3003: m[2,1,11] - m[3,0,3] = 0
 R3004: m[2,1,12] - m[3,0,0] = 0
 R3005: m[2,1,13] - m[3,0,17] = 0
 R3006: m[2,1,14] - m[3,0,34] = 0
 R3007: m[2,1,15] - m[3,0,51] = 0
 R3008: m[2,1,16] - m[3,0,52] = 0
 R3009: m[2,1,17] - m[3,0,5] = 0
 R3010: m[2,1,18] - m[3,0,22] = 0
 R3011: m[2,1,19] - m[3,0,39] = 0
 R3012: m[2,1,20] - m[3,0,36] = 0
 R3013: m[2,1,21] - m[3,0,53] = 0
 R3014: m[2,1,22] - m[3,0,6] = 0
 R3015: m[2,1,23] - m[3,0,23] = 0
 R3016: m[2,1,24] - m[3,0,20] = 0
 R3017: m[2,1,25] - m[3,0,37] = 0
 R3018: m[2,1,26] - m[3,0,54] = 0
 R3019: m[2,1,27] - m[3,0,7] = 0
 R3020: m[2,1,28] - m[3,0,4] = 0
 R3021: m[2,1,29] - m[3,0,21] = 0
 R3022: m[2,1,30] - m[3,0,38] = 0
 R3023: m[2,1,31] - m[3,0,55] = 0
 R3024: m[2,1,32] - m[3,0,56] = 0
 R3025: m[2,1,33] - m[3,0,9] = 0
 R3026: m[2,1,34] - m[3,0,26] = 0
 R3027: m[2,1,35] - m[3,0,43] = 0
 R3028: m[2,1,36] - m[3,0,40] = 0
 R3029: m[2,1,37] - m[3,0,57] = 0
 R3030: m[2,1,38] - m[3,0,10] = 0
 R3031: m[2,1,39] - m[3,0,27] = 0
 R3032: m[2,1,40] - m[3,0,24] = 0
 R3033: m[2,1,41] - m[3,0,41] = 0
 R3034: m[2,1,42] - m[3,0,58] = 0
 R3035: m[2,1,43] - m[3,0,11] = 0
 R3036: m[2,1,44] - m[3,0,8] = 0
 R3037: m[2,1,45] - m[3,0,25] = 0
 R3038: m[2,1,46] - m[3,0,42] = 0
 R3039: m[2,1,47] - m[3,0,59] = 0
 R3040: m[2,1,48] - m[3,0,60] = 0
 R3041: m[2,1,49] - m[3,0,13] = 0
 R3042: m[2,1,50] - m[3,0,30] = 0
 R3043: m[2,1,51] - m[3,0,47] = 0
 R3044: m[2,1,52] - m[3,0,44] = 0
 R3045: m[2,1,53] - m[3,0,61] = 0
 R3046: m[2,1,54] - m[3,0,14] = 0
 R3047: m[2,1,55] - m[3,0,31] = 0
 R3048: m[2,1,56] - m[3,0,28] = 0
 R3049: m[2,1,57] - m[3,0,45] = 0
 R3050: m[2,1,58] - m[3,0,62] = 0
 R3051: m[2,1,59] - m[3,0,15] = 0
 R3052: m[2,1,60] - m[3,0,12] = 0
 R3053: m[2,1,61] - m[3,0,29] = 0
 R3054: m[2,1,62] - m[3,0,46] = 0
 R3055: m[2,1,63] - m[3,0,63] = 0
 R3056: m[3,1,0] - m[4,0,48] = 0
 R3057: m[3,1,1] - m[4,0,1] = 0
 R3058: m[3,1,2] - m[4,0,18] = 0
 R3059: m[3,1,3] - m[4,0,35] = 0
 R3060: m[3,1,4] - m[4,0,32] = 0
 R3061: m[3,1,5] - m[4,0,49] = 0
 R3062: m[3,1,6] - m[4,0,2] = 0
 R3063: m[3,1,7] - m[4,0,19] = 0
 R3064: m[3,1,8] - m[4,0,16] = 0
 R3065: m[3,1,9] - m[4,0,33] = 0
 R3066: m[3,1,10] - m[4,0,50] = 0
 R3067: m[3,1,11] - m[4,0,3] = 0
 R3068: m[3,1,12] - m[4,0,0] = 0
 R3069: m[3,1,13] - m[4,0,17] = 0
 R3070: m[3,1,14] - m[4,0,34] = 0
 R3071: m[3,1,15] - m[4,0,51] = 0
 R3072: m[3,1,16] - m[4,0,52] = 0
 R3073: m[3,1,17] - m[4,0,5] = 0
 R3074: m[3,1,18] - m[4,0,22] = 0
 R3075: m[3,1,19] - m[4,0,39] = 0
 R3076: m[3,1,20] - m[4,0,36] = 0
 R3077: m[3,1,21] - m[4,0,53] = 0
 R3078: m[3,1,22] - m[4,0,6] = 0
 R3079: m[3,1,23] - m[4,0,23] = 0
 R3080: m[3,1,24] - m[4,0,20] = 0
 R3081: m[3,1,25] - m[4,0,37] = 0
 R3082: m[3,1,26] - m[4,0,54] = 0
 R3083: m[3,1,27] - m[4,0,7] = 0
 R3084: m[3,1,28] - m[4,0,4] = 0
 R3085: m[3,1,29] - m[4,0,21] = 0
 R3086: m[3,1,30] - m[4,0,38] = 0
 R3087: m[3,1,31] - m[4,0,55] = 0
 R3088: m[3,1,32] - m[4,0,56] = 0
 R3089: m[3,1,33] - m[4,0,9] = 0
 R3090: m[3,1,34] - m[4,0,26] = 0
 R3091: m[3,1,35] - m[4,0,43] = 0
 R3092: m[3,1,36] - m[4,0,40] = 0
 R3093: m[3,1,37] - m[4,0,57] = 0
 R3094: m[3,1,38] - m[4,0,10] = 0
 R3095: m[3,1,39] - m[4,0,27] = 0
 R3096: m[3,1,40] - m[4,0,24] = 0
 R3097: m[3,1,41] - m[4,0,41] = 0
 R3098: m[3,1,42] - m[4,0,58] = 0
 R3099: m[3,1,43] - m[4,0,11] = 0
 R3100: m[3,1,44] - m[4,0,8] = 0
 R3101: m[3,1,45] - m[4,0,25] = 0
 R3102: m[3,1,46] - m[4,0,42] = 0
 R3103: m[3,1,47] - m[4,0,59] = 0
 R3104: m[3,1,48] - m[4,0,60] = 0
 R3105: m[3,1,49] - m[4,0,13] = 0
 R3106: m[3,1,50] - m[4,0,30] = 0
 R3107: m[3,1,51] - m[4,0,47] = 0
 R3108: m[3,1,52] - m[4,0,44] = 0
 R3109: m[3,1,53] - m[4,0,61] = 0
 R3110: m[3,1,54] - m[4,0,14] = 0
 R3111: m[3,1,55] - m[4,0,31] = 0
 R3112: m[3,1,56] - m[4,0,28] = 0
 R3113: m[3,1,57] - m[4,0,45] = 0
 R3114: m[3,1,58] - m[4,0,62] = 0
 R3115: m[3,1,59] - m[4,0,15] = 0
 R3116: m[3,1,60] - m[4,0,12] = 0
 R3117: m[3,1,61] - m[4,0,29] = 0
 R3118: m[3,1,62] - m[4,0,46] = 0
 R3119: m[3,1,63] - m[4,0,63] = 0
 R3120: m[4,1,0] - m[5,0,48] = 0
 R3121: m[4,1,1] - m[5,0,1] = 0
 R3122: m[4,1,2] - m[5,0,18] = 0
 R3123: m[4,1,3] - m[5,0,35] = 0
 R3124: m[4,1,4] - m[5,0,32] = 0
 R3125: m[4,1,5] - m[5,0,49] = 0
 R3126: m[4,1,6] - m[5,0,2] = 0
 R3127: m[4,1,7] - m[5,0,19] = 0
 R3128: m[4,1,8] - m[5,0,16] = 0
 R3129: m[4,1,9] - m[5,0,33] = 0
 R3130: m[4,1,10] - m[5,0,50] = 0
 R3131: m[4,1,11] - m[5,0,3] = 0
 R3132: m[4,1,12] - m[5,0,0] = 0
 R3133: m[4,1,13] - m[5,0,17] = 0
 R3134: m[4,1,14] - m[5,0,34] = 0
 R3135: m[4,1,15] - m[5,0,51] = 0
 R3136: m[4,1,16] - m[5,0,52] = 0
 R3137: m[4,1,17] - m[5,0,5] = 0
 R3138: m[4,1,18] - m[5,0,22] = 0
 R3139: m[4,1,19] - m[5,0,39] = 0
 R3140: m[4,1,20] - m[5,0,36] = 0
 R3141: m[4,1,21] - m[5,0,53] = 0
 R3142: m[4,1,22] - m[5,0,6] = 0
 R3143: m[4,1,23] - m[5,0,23] = 0
 R3144: m[4,1,24] - m[5,0,20] = 0
 R3145: m[4,1,25] - m[5,0,37] = 0
 R3146: m[4,1,26] - m[5,0,54] = 0
 R3147: m[4,1,27] - m[5,0,7] = 0
 R3148: m[4,1,28] - m[5,0,4] = 0
 R3149: m[4,1,29] - m[5,0,21] = 0
 R3150: m[4,1,30] - m[5,0,38] = 0
 R3151: m[4,1,31] - m[5,0,55] = 0
 R3152: m[4,1,32] - m[5,0,56] = 0
 R3153: m[4,1,33] - m[5,0,9] = 0
 R3154: m[4,1,34] - m[5,0,26] = 0
 R3155: m[4,1,35] - m[5,0,43] = 0
 R3156: m[4,1,36] - m[5,0,40] = 0
 R3157: m[4,1,37] - m[5,0,57] = 0
 R3158: m[4,1,38] - m[5,0,10] = 0
 R3159: m[4,1,39] - m[5,0,27] = 0
 R3160: m[4,1,40] - m[5,0,24] = 0
 R3161: m[4,1,41] - m[5,0,41] = 0
 R3162: m[4,1,42] - m[5,0,58] = 0
 R3163: m[4,1,43] - m[5,0,11] = 0
 R3164: m[4,1,44] - m[5,0,8] = 0
 R3165: m[4,1,45] - m[5,0,25] = 0
 R3166: m[4,1,46] - m[5,0,42] = 0
 R3167: m[4,1,47] - m[5,0,59] = 0
 R3168: m[4,1,48] - m[5,0,60] = 0
 R3169: m[4,1,49] - m[5,0,13] = 0
 R3170: m[4,1,50] - m[5,0,30] = 0
 R3171: m[4,1,51] - m[5,0,47] = 0
 R3172: m[4,1,52] - m[5,0,44] = 0
 R3173: m[4,1,53] - m[5,0,61] = 0
 R3174: m[4,1,54] - m[5,0,14] = 0
 R3175: m[4,1,55] - m[5,0,31] = 0
 R3176: m[4,1,56] - m[5,0,28] = 0
 R3177: m[4,1,57] - m[5,0,45] = 0
 R3178: m[4,1,58] - m[5,0,62] = 0
 R3179: m[4,1,59] - m[5,0,15] = 0
 R3180: m[4,1,60] - m[5,0,12] = 0
 R3181: m[4,1,61] - m[5,0,29] = 0
 R3182: m[4,1,62] - m[5,0,46] = 0
 R3183: m[4,1,63] - m[5,0,63] = 0
 R3184: m[5,1,0] - m[6,0,48] = 0
 R3185: m[5,1,1] - m[6,0,1] = 0
 R3186: m[5,1,2] - m[6,0,18] = 0
 R3187: m[5,1,3] - m[6,0,35] = 0
 R3188: m[5,1,4] - m[6,0,32] = 0
 R3189: m[5,1,5] - m[6,0,49] = 0
 R3190: m[5,1,6] - m[6,0,2] = 0
 R3191: m[5,1,7] - m[6,0,19] = 0
 R3192: m[5,1,8] - m[6,0,16] = 0
 R3193: m[5,1,9] - m[6,0,33] = 0
 R3194: m[5,1,10] - m[6,0,50] = 0
 R3195: m[5,1,11] - m[6,0,3] = 0
 R3196: m[5,1,12] - m[6,0,0] = 0
 R3197: m[5,1,13] - m[6,0,17] = 0
 R3198: m[5,1,14] - m[6,0,34] = 0
 R3199: m[5,1,15] - m[6,0,51] = 0
 R3200: m[5,1,16] - m[6,0,52] = 0
 R3201: m[5,1,17] - m[6,0,5] = 0
 R3202: m[5,1,18] - m[6,0,22] = 0
 R3203: m[5,1,19] - m[6,0,39] = 0
 R3204: m[5,1,20] - m[6,0,36] = 0
 R3205: m[5,1,21] - m[6,0,53] = 0
 R3206: m[5,1,22] - m[6,0,6] = 0
 R3207: m[5,1,23] - m[6,0,23] = 0
 R3208: m[5,1,24] - m[6,0,20] = 0
 R3209: m[5,1,25] - m[6,0,37] = 0
 R3210: m[5,1,26] - m[6,0,54] = 0
 R3211: m[5,1,27] - m[6,0,7] = 0
 R3212: m[5,1,28] - m[6,0,4] = 0
 R3213: m[5,1,29] - m[6,0,21] = 0
 R3214: m[5,1,30] - m[6,0,38] = 0
 R3215: m[5,1,31] - m[6,0,55] = 0
 R3216: m[5,1,32] - m[6,0,56] = 0
 R3217: m[5,1,33] - m[6,0,9] = 0
 R3218: m[5,1,34] - m[6,0,26] = 0
 R3219: m[5,1,35] - m[6,0,43] = 0
 R3220: m[5,1,36] - m[6,0,40] = 0
 R3221: m[5,1,37] - m[6,0,57] = 0
 R3222: m[5,1,38] - m[6,0,10] = 0
 R3223: m[5,1,39] - m[6,0,27] = 0
 R3224: m[5,1,40] - m[6,0,24] = 0
 R3225: m[5,1,41] - m[6,0,41] = 0
 R3226: m[5,1,42] - m[6,0,58] = 0
 R3227: m[5,1,43] - m[6,0,11] = 0
 R3228: m[5,1,44] - m[6,0,8] = 0
 R3229: m[5,1,45] - m[6,0,25] = 0
 R3230: m[5,1,46] - m[6,0,42] = 0
 R3231: m[5,1,47] - m[6,0,59] = 0
 R3232: m[5,1,48] - m[6,0,60] = 0
 R3233: m[5,1,49] - m[6,0,13] = 0
 R3234: m[5,1,50] - m[6,0,30] = 0
 R3235: m[5,1,51] - m[6,0,47] = 0
 R3236: m[5,1,52] - m[6,0,44] = 0
 R3237: m[5,1,53] - m[6,0,61] = 0
 R3238: m[5,1,54] - m[6,0,14] = 0
 R3239: m[5,1,55] - m[6,0,31] = 0
 R3240: m[5,1,56] - m[6,0,28] = 0
 R3241: m[5,1,57] - m[6,0,45] = 0
 R3242: m[5,1,58] - m[6,0,62] = 0
 R3243: m[5,1,59] - m[6,0,15] = 0
 R3244: m[5,1,60] - m[6,0,12] = 0
 R3245: m[5,1,61] - m[6,0,29] = 0
 R3246: m[5,1,62] - m[6,0,46] = 0
 R3247: m[5,1,63] - m[6,0,63] = 0
 R3248: m[6,1,0] - m[7,0,48] = 0
 R3249: m[6,1,1] - m[7,0,1] = 0
 R3250: m[6,1,2] - m[7,0,18] = 0
 R3251: m[6,1,3] - m[7,0,35] = 0
 R3252: m[6,1,4] - m[7,0,32] = 0
 R3253: m[6,1,5] - m[7,0,49] = 0
 R3254: m[6,1,6] - m[7,0,2] = 0
 R3255: m[6,1,7] - m[7,0,19] = 0
 R3256: m[6,1,8] - m[7,0,16] = 0
 R3257: m[6,1,9] - m[7,0,33] = 0
 R3258: m[6,1,10] - m[7,0,50] = 0
 R3259: m[6,1,11] - m[7,0,3] = 0
 R3260: m[6,1,12] - m[7,0,0] = 0
 R3261: m[6,1,13] - m[7,0,17] = 0
 R3262: m[6,1,14] - m[7,0,34] = 0
 R3263: m[6,1,15] - m[7,0,51] = 0
 R3264: m[6,1,16] - m[7,0,52] = 0
 R3265: m[6,1,17] - m[7,0,5] = 0
 R3266: m[6,1,18] - m[7,0,22] = 0
 R3267: m[6,1,19] - m[7,0,39] = 0
 R3268: m[6,1,20] - m[7,0,36] = 0
 R3269: m[6,1,21] - m[7,0,53] = 0
 R3270: m[6,1,22] - m[7,0,6] = 0
 R3271: m[6,1,23] - m[7,0,23] = 0
 R3272: m[6,1,24] - m[7,0,20] = 0
 R3273: m[6,1,25] - m[7,0,37] = 0
 R3274: m[6,1,26] - m[7,0,54] = 0
 R3275: m[6,1,27] - m[7,0,7] = 0
 R3276: m[6,1,28] - m[7,0,4] = 0
 R3277: m[6,1,29] - m[7,0,21] = 0
 R3278: m[6,1,30] - m[7,0,38] = 0
 R3279: m[6,1,31] - m[7,0,55] = 0
 R3280: m[6,1,32] - m[7,0,56] = 0
 R3281: m[6,1,33] - m[7,0,9] = 0
 R3282: m[6,1,34] - m[7,0,26] = 0
 R3283: m[6,1,35] - m[7,0,43] = 0
 R3284: m[6,1,36] - m[7,0,40] = 0
 R3285: m[6,1,37] - m[7,0,57] = 0
 R3286: m[6,1,38] - m[7,0,10] = 0
 R3287: m[6,1,39] - m[7,0,27] = 0
 R3288: m[6,1,40] - m[7,0,24] = 0
 R3289: m[6,1,41] - m[7,0,41] = 0
 R3290: m[6,1,42] - m[7,0,58] = 0
 R3291: m[6,1,43] - m[7,0,11] = 0
 R3292: m[6,1,44] - m[7,0,8] = 0
 R3293: m[6,1,45] - m[7,0,25] = 0
 R3294: m[6,1,46] - m[7,0,42] = 0
 R3295: m[6,1,47] - m[7,0,59] = 0
 R3296: m[6,1,48] - m[7,0,60] = 0
 R3297: m[6,1,49] - m[7,0,13] = 0
 R3298: m[6,1,50] - m[7,0,30] = 0
 R3299: m[6,1,51] - m[7,0,47] = 0
 R3300: m[6,1,52] - m[7,0,44] = 0
 R3301: m[6,1,53] - m[7,0,61] = 0
 R3302: m[6,1,54] - m[7,0,14] = 0
 R3303: m[6,1,55] - m[7,0,31] = 0
 R3304: m[6,1,56] - m[7,0,28] = 0
 R3305: m[6,1,57] - m[7,0,45] = 0
 R3306: m[6,1,58] - m[7,0,62] = 0
 R3307: m[6,1,59] - m[7,0,15] = 0
 R3308: m[6,1,60] - m[7,0,12] = 0
 R3309: m[6,1,61] - m[7,0,29] = 0
 R3310: m[6,1,62] - m[7,0,46] = 0
 R3311: m[6,1,63] - m[7,0,63] = 0
 R3312: m[7,1,0] - m[8,0,48] = 0
 R3313: m[7,1,1] - m[8,0,1] = 0
 R3314: m[7,1,2] - m[8,0,18] = 0
 R3315: m[7,1,3] - m[8,0,35] = 0
 R3316: m[7,1,4] - m[8,0,32] = 0
 R3317: m[7,1,5] - m[8,0,49] = 0
 R3318: m[7,1,6] - m[8,0,2] = 0
 R3319: m[7,1,7] - m[8,0,19] = 0
 R3320: m[7,1,8] - m[8,0,16] = 0
 R3321: m[7,1,9] - m[8,0,33] = 0
 R3322: m[7,1,10] - m[8,0,50] = 0
 R3323: m[7,1,11] - m[8,0,3] = 0
 R3324: m[7,1,12] - m[8,0,0] = 0
 R3325: m[7,1,13] - m[8,0,17] = 0
 R3326: m[7,1,14] - m[8,0,34] = 0
 R3327: m[7,1,15] - m[8,0,51] = 0
 R3328: m[7,1,16] - m[8,0,52] = 0
 R3329: m[7,1,17] - m[8,0,5] = 0
 R3330: m[7,1,18] - m[8,0,22] = 0
 R3331: m[7,1,19] - m[8,0,39] = 0
 R3332: m[7,1,20] - m[8,0,36] = 0
 R3333: m[7,1,21] - m[8,0,53] = 0
 R3334: m[7,1,22] - m[8,0,6] = 0
 R3335: m[7,1,23] - m[8,0,23] = 0
 R3336: m[7,1,24] - m[8,0,20] = 0
 R3337: m[7,1,25] - m[8,0,37] = 0
 R3338: m[7,1,26] - m[8,0,54] = 0
 R3339: m[7,1,27] - m[8,0,7] = 0
 R3340: m[7,1,28] - m[8,0,4] = 0
 R3341: m[7,1,29] - m[8,0,21] = 0
 R3342: m[7,1,30] - m[8,0,38] = 0
 R3343: m[7,1,31] - m[8,0,55] = 0
 R3344: m[7,1,32] - m[8,0,56] = 0
 R3345: m[7,1,33] - m[8,0,9] = 0
 R3346: m[7,1,34] - m[8,0,26] = 0
 R3347: m[7,1,35] - m[8,0,43] = 0
 R3348: m[7,1,36] - m[8,0,40] = 0
 R3349: m[7,1,37] - m[8,0,57] = 0
 R3350: m[7,1,38] - m[8,0,10] = 0
 R3351: m[7,1,39] - m[8,0,27] = 0
 R3352: m[7,1,40] - m[8,0,24] = 0
 R3353: m[7,1,41] - m[8,0,41] = 0
 R3354: m[7,1,42] - m[8,0,58] = 0
 R3355: m[7,1,43] - m[8,0,11] = 0
 R3356: m[7,1,44] - m[8,0,8] = 0
 R3357: m[7,1,45] - m[8,0,25] = 0
 R3358: m[7,1,46] - m[8,0,42] = 0
 R3359: m[7,1,47] - m[8,0,59] = 0
 R3360: m[7,1,48] - m[8,0,60] = 0
 R3361: m[7,1,49] - m[8,0,13] = 0
 R3362: m[7,1,50] - m[8,0,30] = 0
 R3363: m[7,1,51] - m[8,0,47] = 0
 R3364: m[7,1,52] - m[8,0,44] = 0
 R3365: m[7,1,53] - m[8,0,61] = 0
 R3366: m[7,1,54] - m[8,0,14] = 0
 R3367: m[7,1,55] - m[8,0,31] = 0
 R3368: m[7,1,56] - m[8,0,28] = 0
 R3369: m[7,1,57] - m[8,0,45] = 0
 R3370: m[7,1,58] - m[8,0,62] = 0
 R3371: m[7,1,59] - m[8,0,15] = 0
 R3372: m[7,1,60] - m[8,0,12] = 0
 R3373: m[7,1,61] - m[8,0,29] = 0
 R3374: m[7,1,62] - m[8,0,46] = 0
 R3375: m[7,1,63] - m[8,0,63] = 0
 R3376: m[8,1,0] - m[9,0,48] = 0
 R3377: m[8,1,1] - m[9,0,1] = 0
 R3378: m[8,1,2] - m[9,0,18] = 0
 R3379: m[8,1,3] - m[9,0,35] = 0
 R3380: m[8,1,4] - m[9,0,32] = 0
 R3381: m[8,1,5] - m[9,0,49] = 0
 R3382: m[8,1,6] - m[9,0,2] = 0
 R3383: m[8,1,7] - m[9,0,19] = 0
 R3384: m[8,1,8] - m[9,0,16] = 0
 R3385: m[8,1,9] - m[9,0,33] = 0
 R3386: m[8,1,10] - m[9,0,50] = 0
 R3387: m[8,1,11] - m[9,0,3] = 0
 R3388: m[8,1,12] - m[9,0,0] = 0
 R3389: m[8,1,13] - m[9,0,17] = 0
 R3390: m[8,1,14] - m[9,0,34] = 0
 R3391: m[8,1,15] - m[9,0,51] = 0
 R3392: m[8,1,16] - m[9,0,52] = 0
 R3393: m[8,1,17] - m[9,0,5] = 0
 R3394: m[8,1,18] - m[9,0,22] = 0
 R3395: m[8,1,19] - m[9,0,39] = 0
 R3396: m[8,1,20] - m[9,0,36] = 0
 R3397: m[8,1,21] - m[9,0,53] = 0
 R3398: m[8,1,22] - m[9,0,6] = 0
 R3399: m[8,1,23] - m[9,0,23] = 0
 R3400: m[8,1,24] - m[9,0,20] = 0
 R3401: m[8,1,25] - m[9,0,37] = 0
 R3402: m[8,1,26] - m[9,0,54] = 0
 R3403: m[8,1,27] - m[9,0,7] = 0
 R3404: m[8,1,28] - m[9,0,4] = 0
 R3405: m[8,1,29] - m[9,0,21] = 0
 R3406: m[8,1,30] - m[9,0,38] = 0
 R3407: m[8,1,31] - m[9,0,55] = 0
 R3408: m[8,1,32] - m[9,0,56] = 0
 R3409: m[8,1,33] - m[9,0,9] = 0
 R3410: m[8,1,34] - m[9,0,26] = 0
 R3411: m[8,1,35] - m[9,0,43] = 0
 R3412: m[8,1,36] - m[9,0,40] = 0
 R3413: m[8,1,37] - m[9,0,57] = 0
 R3414: m[8,1,38] - m[9,0,10] = 0
 R3415: m[8,1,39] - m[9,0,27] = 0
 R3416: m[8,1,40] - m[9,0,24] = 0
 R3417: m[8,1,41] - m[9,0,41] = 0
 R3418: m[8,1,42] - m[9,0,58] = 0
 R3419: m[8,1,43] - m[9,0,11] = 0
 R3420: m[8,1,44] - m[9,0,8] = 0
 R3421: m[8,1,45] - m[9,0,25] = 0
 R3422: m[8,1,46] - m[9,0,42] = 0
 R3423: m[8,1,47] - m[9,0,59] = 0
 R3424: m[8,1,48] - m[9,0,60] = 0
 R3425: m[8,1,49] - m[9,0,13] = 0
 R3426: m[8,1,50] - m[9,0,30] = 0
 R3427: m[8,1,51] - m[9,0,47] = 0
 R3428: m[8,1,52] - m[9,0,44] = 0
 R3429: m[8,1,53] - m[9,0,61] = 0
 R3430: m[8,1,54] - m[9,0,14] = 0
 R3431: m[8,1,55] - m[9,0,31] = 0
 R3432: m[8,1,56] - m[9,0,28] = 0
 R3433: m[8,1,57] - m[9,0,45] = 0
 R3434: m[8,1,58] - m[9,0,62] = 0
 R3435: m[8,1,59] - m[9,0,15] = 0
 R3436: m[8,1,60] - m[9,0,12] = 0
 R3437: m[8,1,61] - m[9,0,29] = 0
 R3438: m[8,1,62] - m[9,0,46] = 0
 R3439: m[8,1,63] - m[9,0,63] = 0
 R3440: m[9,1,0] - m[10,0,48] = 0
 R3441: m[9,1,1] - m[10,0,1] = 0
 R3442: m[9,1,2] - m[10,0,18] = 0
 R3443: m[9,1,3] - m[10,0,35] = 0
 R3444: m[9,1,4] - m[10,0,32] = 0
 R3445: m[9,1,5] - m[10,0,49] = 0
 R3446: m[9,1,6] - m[10,0,2] = 0
 R3447: m[9,1,7] - m[10,0,19] = 0
 R3448: m[9,1,8] - m[10,0,16] = 0
 R3449: m[9,1,9] - m[10,0,33] = 0
 R3450: m[9,1,10] - m[10,0,50] = 0
 R3451: m[9,1,11] - m[10,0,3] = 0
 R3452: m[9,1,12] - m[10,0,0] = 0
 R3453: m[9,1,13] - m[10,0,17] = 0
 R3454: m[9,1,14] - m[10,0,34] = 0
 R3455: m[9,1,15] - m[10,0,51] = 0
 R3456: m[9,1,16] - m[10,0,52] = 0
 R3457: m[9,1,17] - m[10,0,5] = 0
 R3458: m[9,1,18] - m[10,0,22] = 0
 R3459: m[9,1,19] - m[10,0,39] = 0
 R3460: m[9,1,20] - m[10,0,36] = 0
 R3461: m[9,1,21] - m[10,0,53] = 0
 R3462: m[9,1,22] - m[10,0,6] = 0
 R3463: m[9,1,23] - m[10,0,23] = 0
 R3464: m[9,1,24] - m[10,0,20] = 0
 R3465: m[9,1,25] - m[10,0,37] = 0
 R3466: m[9,1,26] - m[10,0,54] = 0
 R3467: m[9,1,27] - m[10,0,7] = 0
 R3468: m[9,1,28] - m[10,0,4] = 0
 R3469: m[9,1,29] - m[10,0,21] = 0
 R3470: m[9,1,30] - m[10,0,38] = 0
 R3471: m[9,1,31] - m[10,0,55] = 0
 R3472: m[9,1,32] - m[10,0,56] = 0
 R3473: m[9,1,33] - m[10,0,9] = 0
 R3474: m[9,1,34] - m[10,0,26] = 0
 R3475: m[9,1,35] - m[10,0,43] = 0
 R3476: m[9,1,36] - m[10,0,40] = 0
 R3477: m[9,1,37] - m[10,0,57] = 0
 R3478: m[9,1,38] - m[10,0,10] = 0
 R3479: m[9,1,39] - m[10,0,27] = 0
 R3480: m[9,1,40] - m[10,0,24] = 0
 R3481: m[9,1,41] - m[10,0,41] = 0
 R3482: m[9,1,42] - m[10,0,58] = 0
 R3483: m[9,1,43] - m[10,0,11] = 0
 R3484: m[9,1,44] - m[10,0,8] = 0
 R3485: m[9,1,45] - m[10,0,25] = 0
 R3486: m[9,1,46] - m[10,0,42] = 0
 R3487: m[9,1,47] - m[10,0,59] = 0
 R3488: m[9,1,48] - m[10,0,60] = 0
 R3489: m[9,1,49] - m[10,0,13] = 0
 R3490: m[9,1,50] - m[10,0,30] = 0
 R3491: m[9,1,51] - m[10,0,47] = 0
 R3492: m[9,1,52] - m[10,0,44] = 0
 R3493: m[9,1,53] - m[10,0,61] = 0
 R3494: m[9,1,54] - m[10,0,14] = 0
 R3495: m[9,1,55] - m[10,0,31] = 0
 R3496: m[9,1,56] - m[10,0,28] = 0
 R3497: m[9,1,57] - m[10,0,45] = 0
 R3498: m[9,1,58] - m[10,0,62] = 0
 R3499: m[9,1,59] - m[10,0,15] = 0
 R3500: m[9,1,60] - m[10,0,12] = 0
 R3501: m[9,1,61] - m[10,0,29] = 0
 R3502: m[9,1,62] - m[10,0,46] = 0
 R3503: m[9,1,63] - m[10,0,63] = 0
 R3504: m[10,1,0] - m[11,0,48] = 0
 R3505: m[10,1,1] - m[11,0,1] = 0
 R3506: m[10,1,2] - m[11,0,18] = 0
 R3507: m[10,1,3] - m[11,0,35] = 0
 R3508: m[10,1,4] - m[11,0,32] = 0
 R3509: m[10,1,5] - m[11,0,49] = 0
 R3510: m[10,1,6] - m[11,0,2] = 0
 R3511: m[10,1,7] - m[11,0,19] = 0
 R3512: m[10,1,8] - m[11,0,16] = 0
 R3513: m[10,1,9] - m[11,0,33] = 0
 R3514: m[10,1,10] - m[11,0,50] = 0
 R3515: m[10,1,11] - m[11,0,3] = 0
 R3516: m[10,1,12] - m[11,0,0] = 0
 R3517: m[10,1,13] - m[11,0,17] = 0
 R3518: m[10,1,14] - m[11,0,34] = 0
 R3519: m[10,1,15] - m[11,0,51] = 0
 R3520: m[10,1,16] - m[11,0,52] = 0
 R3521: m[10,1,17] - m[11,0,5] = 0
 R3522: m[10,1,18] - m[11,0,22] = 0
 R3523: m[10,1,19] - m[11,0,39] = 0
 R3524: m[10,1,20] - m[11,0,36] = 0
 R3525: m[10,1,21] - m[11,0,53] = 0
 R3526: m[10,1,22] - m[11,0,6] = 0
 R3527: m[10,1,23] - m[11,0,23] = 0
 R3528: m[10,1,24] - m[11,0,20] = 0
 R3529: m[10,1,25] - m[11,0,37] = 0
 R3530: m[10,1,26] - m[11,0,54] = 0
 R3531: m[10,1,27] - m[11,0,7] = 0
 R3532: m[10,1,28] - m[11,0,4] = 0
 R3533: m[10,1,29] - m[11,0,21] = 0
 R3534: m[10,1,30] - m[11,0,38] = 0
 R3535: m[10,1,31] - m[11,0,55] = 0
 R3536: m[10,1,32] - m[11,0,56] = 0
 R3537: m[10,1,33] - m[11,0,9] = 0
 R3538: m[10,1,34] - m[11,0,26] = 0
 R3539: m[10,1,35] - m[11,0,43] = 0
 R3540: m[10,1,36] - m[11,0,40] = 0
 R3541: m[10,1,37] - m[11,0,57] = 0
 R3542: m[10,1,38] - m[11,0,10] = 0
 R3543: m[10,1,39] - m[11,0,27] = 0
 R3544: m[10,1,40] - m[11,0,24] = 0
 R3545: m[10,1,41] - m[11,0,41] = 0
 R3546: m[10,1,42] - m[11,0,58] = 0
 R3547: m[10,1,43] - m[11,0,11] = 0
 R3548: m[10,1,44] - m[11,0,8] = 0
 R3549: m[10,1,45] - m[11,0,25] = 0
 R3550: m[10,1,46] - m[11,0,42] = 0
 R3551: m[10,1,47] - m[11,0,59] = 0
 R3552: m[10,1,48] - m[11,0,60] = 0
 R3553: m[10,1,49] - m[11,0,13] = 0
 R3554: m[10,1,50] - m[11,0,30] = 0
 R3555: m[10,1,51] - m[11,0,47] = 0
 R3556: m[10,1,52] - m[11,0,44] = 0
 R3557: m[10,1,53] - m[11,0,61] = 0
 R3558: m[10,1,54] - m[11,0,14] = 0
 R3559: m[10,1,55] - m[11,0,31] = 0
 R3560: m[10,1,56] - m[11,0,28] = 0
 R3561: m[10,1,57] - m[11,0,45] = 0
 R3562: m[10,1,58] - m[11,0,62] = 0
 R3563: m[10,1,59] - m[11,0,15] = 0
 R3564: m[10,1,60] - m[11,0,12] = 0
 R3565: m[10,1,61] - m[11,0,29] = 0
 R3566: m[10,1,62] - m[11,0,46] = 0
 R3567: m[10,1,63] - m[11,0,63] = 0
Bounds
Binaries
 m[0,0,0] m[0,0,1] m[0,0,2] m[0,0,3] m[0,0,4] m[0,0,5] m[0,0,6] m[0,0,7]
 m[0,0,8] m[0,0,9] m[0,0,10] m[0,0,11] m[0,0,12] m[0,0,13] m[0,0,14]
 m[0,0,15] m[0,0,16] m[0,0,17] m[0,0,18] m[0,0,19] m[0,0,20] m[0,0,21]
 m[0,0,22] m[0,0,23] m[0,0,24] m[0,0,25] m[0,0,26] m[0,0,27] m[0,0,28]
 m[0,0,29] m[0,0,30] m[0,0,31] m[0,0,32] m[0,0,33] m[0,0,34] m[0,0,35]
 m[0,0,36] m[0,0,37] m[0,0,38] m[0,0,39] m[0,0,40] m[0,0,41] m[0,0,42]
 m[0,0,43] m[0,0,44] m[0,0,45] m[0,0,46] m[0,0,47] m[0,0,48] m[0,0,49]
 m[0,0,50] m[0,0,51] m[0,0,52] m[0,0,53] m[0,0,54] m[0,0,55] m[0,0,56]
 m[0,0,57] m[0,0,58] m[0,0,59] m[0,0,60] m[0,0,61] m[0,0,62] m[0,0,63]
 m[0,1,0] m[0,1,1] m[0,1,2] m[0,1,3] m[0,1,4] m[0,1,5] m[0,1,6] m[0,1,7]
 m[0,1,8] m[0,1,9] m[0,1,10] m[0,1,11] m[0,1,12] m[0,1,13] m[0,1,14]
 m[0,1,15] m[0,1,16] m[0,1,17] m[0,1,18] m[0,1,19] m[0,1,20] m[0,1,21]
 m[0,1,22] m[0,1,23] m[0,1,24] m[0,1,25] m[0,1,26] m[0,1,27] m[0,1,28]
 m[0,1,29] m[0,1,30] m[0,1,31] m[0,1,32] m[0,1,33] m[0,1,34] m[0,1,35]
 m[0,1,36] m[0,1,37] m[0,1,38] m[0,1,39] m[0,1,40] m[0,1,41] m[0,1,42]
 m[0,1,43] m[0,1,44] m[0,1,45] m[0,1,46] m[0,1,47] m[0,1,48] m[0,1,49]
 m[0,1,50] m[0,1,51] m[0,1,52] m[0,1,53] m[0,1,54] m[0,1,55] m[0,1,56]
 m[0,1,57] m[0,1,58] m[0,1,59] m[0,1,60] m[0,1,61] m[0,1,62] m[0,1,63]
 m[1,0,0] m[1,0,1] m[1,0,2] m[1,0,3] m[1,0,4] m[1,0,5] m[1,0,6] m[1,0,7]
 m[1,0,8] m[1,0,9] m[1,0,10] m[1,0,11] m[1,0,12] m[1,0,13] m[1,0,14]
 m[1,0,15] m[1,0,16] m[1,0,17] m[1,0,18] m[1,0,19] m[1,0,20] m[1,0,21]
 m[1,0,22] m[1,0,23] m[1,0,24] m[1,0,25] m[1,0,26] m[1,0,27] m[1,0,28]
 m[1,0,29] m[1,0,30] m[1,0,31] m[1,0,32] m[1,0,33] m[1,0,34] m[1,0,35]
 m[1,0,36] m[1,0,37] m[1,0,38] m[1,0,39] m[1,0,40] m[1,0,41] m[1,0,42]
 m[1,0,43] m[1,0,44] m[1,0,45] m[1,0,46] m[1,0,47] m[1,0,48] m[1,0,49]
 m[1,0,50] m[1,0,51] m[1,0,52] m[1,0,53] m[1,0,54] m[1,0,55] m[1,0,56]
 m[1,0,57] m[1,0,58] m[1,0,59] m[1,0,60] m[1,0,61] m[1,0,62] m[1,0,63]
 m[1,1,0] m[1,1,1] m[1,1,2] m[1,1,3] m[1,1,4] m[1,1,5] m[1,1,6] m[1,1,7]
 m[1,1,8] m[1,1,9] m[1,1,10] m[1,1,11] m[1,1,12] m[1,1,13] m[1,1,14]
 m[1,1,15] m[1,1,16] m[1,1,17] m[1,1,18] m[1,1,19] m[1,1,20] m[1,1,21]
 m[1,1,22] m[1,1,23] m[1,1,24] m[1,1,25] m[1,1,26] m[1,1,27] m[1,1,28]
 m[1,1,29] m[1,1,30] m[1,1,31] m[1,1,32] m[1,1,33] m[1,1,34] m[1,1,35]
 m[1,1,36] m[1,1,37] m[1,1,38] m[1,1,39] m[1,1,40] m[1,1,41] m[1,1,42]
 m[1,1,43] m[1,1,44] m[1,1,45] m[1,1,46] m[1,1,47] m[1,1,48] m[1,1,49]
 m[1,1,50] m[1,1,51] m[1,1,52] m[1,1,53] m[1,1,54] m[1,1,55] m[1,1,56]
 m[1,1,57] m[1,1,58] m[1,1,59] m[1,1,60] m[1,1,61] m[1,1,62] m[1,1,63]
 m[2,0,0] m[2,0,1] m[2,0,2] m[2,0,3] m[2,0,4] m[2,0,5] m[2,0,6] m[2,0,7]
 m[2,0,8] m[2,0,9] m[2,0,10] m[2,0,11] m[2,0,12] m[2,0,13] m[2,0,14]
 m[2,0,15] m[2,0,16] m[2,0,17] m[2,0,18] m[2,0,19] m[2,0,20] m[2,0,21]
 m[2,0,22] m[2,0,23] m[2,0,24] m[2,0,25] m[2,0,26] m[2,0,27] m[2,0,28]
 m[2,0,29] m[2,0,30] m[2,0,31] m[2,0,32] m[2,0,33] m[2,0,34] m[2,0,35]
 m[2,0,36] m[2,0,37] m[2,0,38] m[2,0,39] m[2,0,40] m[2,0,41] m[2,0,42]
 m[2,0,43] m[2,0,44] m[2,0,45] m[2,0,46] m[2,0,47] m[2,0,48] m[2,0,49]
 m[2,0,50] m[2,0,51] m[2,0,52] m[2,0,53] m[2,0,54] m[2,0,55] m[2,0,56]
 m[2,0,57] m[2,0,58] m[2,0,59] m[2,0,60] m[2,0,61] m[2,0,62] m[2,0,63]
 m[2,1,0] m[2,1,1] m[2,1,2] m[2,1,3] m[2,1,4] m[2,1,5] m[2,1,6] m[2,1,7]
 m[2,1,8] m[2,1,9] m[2,1,10] m[2,1,11] m[2,1,12] m[2,1,13] m[2,1,14]
 m[2,1,15] m[2,1,16] m[2,1,17] m[2,1,18] m[2,1,19] m[2,1,20] m[2,1,21]
 m[2,1,22] m[2,1,23] m[2,1,24] m[2,1,25] m[2,1,26] m[2,1,27] m[2,1,28]
 m[2,1,29] m[2,1,30] m[2,1,31] m[2,1,32] m[2,1,33] m[2,1,34] m[2,1,35]
 m[2,1,36] m[2,1,37] m[2,1,38] m[2,1,39] m[2,1,40] m[2,1,41] m[2,1,42]
 m[2,1,43] m[2,1,44] m[2,1,45] m[2,1,46] m[2,1,47] m[2,1,48] m[2,1,49]
 m[2,1,50] m[2,1,51] m[2,1,52] m[2,1,53] m[2,1,54] m[2,1,55] m[2,1,56]
 m[2,1,57] m[2,1,58] m[2,1,59] m[2,1,60] m[2,1,61] m[2,1,62] m[2,1,63]
 m[3,0,0] m[3,0,1] m[3,0,2] m[3,0,3] m[3,0,4] m[3,0,5] m[3,0,6] m[3,0,7]
 m[3,0,8] m[3,0,9] m[3,0,10] m[3,0,11] m[3,0,12] m[3,0,13] m[3,0,14]
 m[3,0,15] m[3,0,16] m[3,0,17] m[3,0,18] m[3,0,19] m[3,0,20] m[3,0,21]
 m[3,0,22] m[3,0,23] m[3,0,24] m[3,0,25] m[3,0,26] m[3,0,27] m[3,0,28]
 m[3,0,29] m[3,0,30] m[3,0,31] m[3,0,32] m[3,0,33] m[3,0,34] m[3,0,35]
 m[3,0,36] m[3,0,37] m[3,0,38] m[3,0,39] m[3,0,40] m[3,0,41] m[3,0,42]
 m[3,0,43] m[3,0,44] m[3,0,45] m[3,0,46] m[3,0,47] m[3,0,48] m[3,0,49]
 m[3,0,50] m[3,0,51] m[3,0,52] m[3,0,53] m[3,0,54] m[3,0,55] m[3,0,56]
 m[3,0,57] m[3,0,58] m[3,0,59] m[3,0,60] m[3,0,61] m[3,0,62] m[3,0,63]
 m[3,1,0] m[3,1,1] m[3,1,2] m[3,1,3] m[3,1,4] m[3,1,5] m[3,1,6] m[3,1,7]
 m[3,1,8] m[3,1,9] m[3,1,10] m[3,1,11] m[3,1,12] m[3,1,13] m[3,1,14]
 m[3,1,15] m[3,1,16] m[3,1,17] m[3,1,18] m[3,1,19] m[3,1,20] m[3,1,21]
 m[3,1,22] m[3,1,23] m[3,1,24] m[3,1,25] m[3,1,26] m[3,1,27] m[3,1,28]
 m[3,1,29] m[3,1,30] m[3,1,31] m[3,1,32] m[3,1,33] m[3,1,34] m[3,1,35]
 m[3,1,36] m[3,1,37] m[3,1,38] m[3,1,39] m[3,1,40] m[3,1,41] m[3,1,42]
 m[3,1,43] m[3,1,44] m[3,1,45] m[3,1,46] m[3,1,47] m[3,1,48] m[3,1,49]
 m[3,1,50] m[3,1,51] m[3,1,52] m[3,1,53] m[3,1,54] m[3,1,55] m[3,1,56]
 m[3,1,57] m[3,1,58] m[3,1,59] m[3,1,60] m[3,1,61] m[3,1,62] m[3,1,63]
 m[4,0,0] m[4,0,1] m[4,0,2] m[4,0,3] m[4,0,4] m[4,0,5] m[4,0,6] m[4,0,7]
 m[4,0,8] m[4,0,9] m[4,0,10] m[4,0,11] m[4,0,12] m[4,0,13] m[4,0,14]
 m[4,0,15] m[4,0,16] m[4,0,17] m[4,0,18] m[4,0,19] m[4,0,20] m[4,0,21]
 m[4,0,22] m[4,0,23] m[4,0,24] m[4,0,25] m[4,0,26] m[4,0,27] m[4,0,28]
 m[4,0,29] m[4,0,30] m[4,0,31] m[4,0,32] m[4,0,33] m[4,0,34] m[4,0,35]
 m[4,0,36] m[4,0,37] m[4,0,38] m[4,0,39] m[4,0,40] m[4,0,41] m[4,0,42]
 m[4,0,43] m[4,0,44] m[4,0,45] m[4,0,46] m[4,0,47] m[4,0,48] m[4,0,49]
 m[4,0,50] m[4,0,51] m[4,0,52] m[4,0,53] m[4,0,54] m[4,0,55] m[4,0,56]
 m[4,0,57] m[4,0,58] m[4,0,59] m[4,0,60] m[4,0,61] m[4,0,62] m[4,0,63]
 m[4,1,0] m[4,1,1] m[4,1,2] m[4,1,3] m[4,1,4] m[4,1,5] m[4,1,6] m[4,1,7]
 m[4,1,8] m[4,1,9] m[4,1,10] m[4,1,11] m[4,1,12] m[4,1,13] m[4,1,14]
 m[4,1,15] m[4,1,16] m[4,1,17] m[4,1,18] m[4,1,19] m[4,1,20] m[4,1,21]
 m[4,1,22] m[4,1,23] m[4,1,24] m[4,1,25] m[4,1,26] m[4,1,27] m[4,1,28]
 m[4,1,29] m[4,1,30] m[4,1,31] m[4,1,32] m[4,1,33] m[4,1,34] m[4,1,35]
 m[4,1,36] m[4,1,37] m[4,1,38] m[4,1,39] m[4,1,40] m[4,1,41] m[4,1,42]
 m[4,1,43] m[4,1,44] m[4,1,45] m[4,1,46] m[4,1,47] m[4,1,48] m[4,1,49]
 m[4,1,50] m[4,1,51] m[4,1,52] m[4,1,53] m[4,1,54] m[4,1,55] m[4,1,56]
 m[4,1,57] m[4,1,58] m[4,1,59] m[4,1,60] m[4,1,61] m[4,1,62] m[4,1,63]
 m[5,0,0] m[5,0,1] m[5,0,2] m[5,0,3] m[5,0,4] m[5,0,5] m[5,0,6] m[5,0,7]
 m[5,0,8] m[5,0,9] m[5,0,10] m[5,0,11] m[5,0,12] m[5,0,13] m[5,0,14]
 m[5,0,15] m[5,0,16] m[5,0,17] m[5,0,18] m[5,0,19] m[5,0,20] m[5,0,21]
 m[5,0,22] m[5,0,23] m[5,0,24] m[5,0,25] m[5,0,26] m[5,0,27] m[5,0,28]
 m[5,0,29] m[5,0,30] m[5,0,31] m[5,0,32] m[5,0,33] m[5,0,34] m[5,0,35]
 m[5,0,36] m[5,0,37] m[5,0,38] m[5,0,39] m[5,0,40] m[5,0,41] m[5,0,42]
 m[5,0,43] m[5,0,44] m[5,0,45] m[5,0,46] m[5,0,47] m[5,0,48] m[5,0,49]
 m[5,0,50] m[5,0,51] m[5,0,52] m[5,0,53] m[5,0,54] m[5,0,55] m[5,0,56]
 m[5,0,57] m[5,0,58] m[5,0,59] m[5,0,60] m[5,0,61] m[5,0,62] m[5,0,63]
 m[5,1,0] m[5,1,1] m[5,1,2] m[5,1,3] m[5,1,4] m[5,1,5] m[5,1,6] m[5,1,7]
 m[5,1,8] m[5,1,9] m[5,1,10] m[5,1,11] m[5,1,12] m[5,1,13] m[5,1,14]
 m[5,1,15] m[5,1,16] m[5,1,17] m[5,1,18] m[5,1,19] m[5,1,20] m[5,1,21]
 m[5,1,22] m[5,1,23] m[5,1,24] m[5,1,25] m[5,1,26] m[5,1,27] m[5,1,28]
 m[5,1,29] m[5,1,30] m[5,1,31] m[5,1,32] m[5,1,33] m[5,1,34] m[5,1,35]
 m[5,1,36] m[5,1,37] m[5,1,38] m[5,1,39] m[5,1,40] m[5,1,41] m[5,1,42]
 m[5,1,43] m[5,1,44] m[5,1,45] m[5,1,46] m[5,1,47] m[5,1,48] m[5,1,49]
 m[5,1,50] m[5,1,51] m[5,1,52] m[5,1,53] m[5,1,54] m[5,1,55] m[5,1,56]
 m[5,1,57] m[5,1,58] m[5,1,59] m[5,1,60] m[5,1,61] m[5,1,62] m[5,1,63]
 m[6,0,0] m[6,0,1] m[6,0,2] m[6,0,3] m[6,0,4] m[6,0,5] m[6,0,6] m[6,0,7]
 m[6,0,8] m[6,0,9] m[6,0,10] m[6,0,11] m[6,0,12] m[6,0,13] m[6,0,14]
 m[6,0,15] m[6,0,16] m[6,0,17] m[6,0,18] m[6,0,19] m[6,0,20] m[6,0,21]
 m[6,0,22] m[6,0,23] m[6,0,24] m[6,0,25] m[6,0,26] m[6,0,27] m[6,0,28]
 m[6,0,29] m[6,0,30] m[6,0,31] m[6,0,32] m[6,0,33] m[6,0,34] m[6,0,35]
 m[6,0,36] m[6,0,37] m[6,0,38] m[6,0,39] m[6,0,40] m[6,0,41] m[6,0,42]
 m[6,0,43] m[6,0,44] m[6,0,45] m[6,0,46] m[6,0,47] m[6,0,48] m[6,0,49]
 m[6,0,50] m[6,0,51] m[6,0,52] m[6,0,53] m[6,0,54] m[6,0,55] m[6,0,56]
 m[6,0,57] m[6,0,58] m[6,0,59] m[6,0,60] m[6,0,61] m[6,0,62] m[6,0,63]
 m[6,1,0] m[6,1,1] m[6,1,2] m[6,1,3] m[6,1,4] m[6,1,5] m[6,1,6] m[6,1,7]
 m[6,1,8] m[6,1,9] m[6,1,10] m[6,1,11] m[6,1,12] m[6,1,13] m[6,1,14]
 m[6,1,15] m[6,1,16] m[6,1,17] m[6,1,18] m[6,1,19] m[6,1,20] m[6,1,21]
 m[6,1,22] m[6,1,23] m[6,1,24] m[6,1,25] m[6,1,26] m[6,1,27] m[6,1,28]
 m[6,1,29] m[6,1,30] m[6,1,31] m[6,1,32] m[6,1,33] m[6,1,34] m[6,1,35]
 m[6,1,36] m[6,1,37] m[6,1,38] m[6,1,39] m[6,1,40] m[6,1,41] m[6,1,42]
 m[6,1,43] m[6,1,44] m[6,1,45] m[6,1,46] m[6,1,47] m[6,1,48] m[6,1,49]
 m[6,1,50] m[6,1,51] m[6,1,52] m[6,1,53] m[6,1,54] m[6,1,55] m[6,1,56]
 m[6,1,57] m[6,1,58] m[6,1,59] m[6,1,60] m[6,1,61] m[6,1,62] m[6,1,63]
 m[7,0,0] m[7,0,1] m[7,0,2] m[7,0,3] m[7,0,4] m[7,0,5] m[7,0,6] m[7,0,7]
 m[7,0,8] m[7,0,9] m[7,0,10] m[7,0,11] m[7,0,12] m[7,0,13] m[7,0,14]
 m[7,0,15] m[7,0,16] m[7,0,17] m[7,0,18] m[7,0,19] m[7,0,20] m[7,0,21]
 m[7,0,22] m[7,0,23] m[7,0,24] m[7,0,25] m[7,0,26] m[7,0,27] m[7,0,28]
 m[7,0,29] m[7,0,30] m[7,0,31] m[7,0,32] m[7,0,33] m[7,0,34] m[7,0,35]
 m[7,0,36] m[7,0,37] m[7,0,38] m[7,0,39] m[7,0,40] m[7,0,41] m[7,0,42]
 m[7,0,43] m[7,0,44] m[7,0,45] m[7,0,46] m[7,0,47] m[7,0,48] m[7,0,49]
 m[7,0,50] m[7,0,51] m[7,0,52] m[7,0,53] m[7,0,54] m[7,0,55] m[7,0,56]
 m[7,0,57] m[7,0,58] m[7,0,59] m[7,0,60] m[7,0,61] m[7,0,62] m[7,0,63]
 m[7,1,0] m[7,1,1] m[7,1,2] m[7,1,3] m[7,1,4] m[7,1,5] m[7,1,6] m[7,1,7]
 m[7,1,8] m[7,1,9] m[7,1,10] m[7,1,11] m[7,1,12] m[7,1,13] m[7,1,14]
 m[7,1,15] m[7,1,16] m[7,1,17] m[7,1,18] m[7,1,19] m[7,1,20] m[7,1,21]
 m[7,1,22] m[7,1,23] m[7,1,24] m[7,1,25] m[7,1,26] m[7,1,27] m[7,1,28]
 m[7,1,29] m[7,1,30] m[7,1,31] m[7,1,32] m[7,1,33] m[7,1,34] m[7,1,35]
 m[7,1,36] m[7,1,37] m[7,1,38] m[7,1,39] m[7,1,40] m[7,1,41] m[7,1,42]
 m[7,1,43] m[7,1,44] m[7,1,45] m[7,1,46] m[7,1,47] m[7,1,48] m[7,1,49]
 m[7,1,50] m[7,1,51] m[7,1,52] m[7,1,53] m[7,1,54] m[7,1,55] m[7,1,56]
 m[7,1,57] m[7,1,58] m[7,1,59] m[7,1,60] m[7,1,61] m[7,1,62] m[7,1,63]
 m[8,0,0] m[8,0,1] m[8,0,2] m[8,0,3] m[8,0,4] m[8,0,5] m[8,0,6] m[8,0,7]
 m[8,0,8] m[8,0,9] m[8,0,10] m[8,0,11] m[8,0,12] m[8,0,13] m[8,0,14]
 m[8,0,15] m[8,0,16] m[8,0,17] m[8,0,18] m[8,0,19] m[8,0,20] m[8,0,21]
 m[8,0,22] m[8,0,23] m[8,0,24] m[8,0,25] m[8,0,26] m[8,0,27] m[8,0,28]
 m[8,0,29] m[8,0,30] m[8,0,31] m[8,0,32] m[8,0,33] m[8,0,34] m[8,0,35]
 m[8,0,36] m[8,0,37] m[8,0,38] m[8,0,39] m[8,0,40] m[8,0,41] m[8,0,42]
 m[8,0,43] m[8,0,44] m[8,0,45] m[8,0,46] m[8,0,47] m[8,0,48] m[8,0,49]
 m[8,0,50] m[8,0,51] m[8,0,52] m[8,0,53] m[8,0,54] m[8,0,55] m[8,0,56]
 m[8,0,57] m[8,0,58] m[8,0,59] m[8,0,60] m[8,0,61] m[8,0,62] m[8,0,63]
 m[8,1,0] m[8,1,1] m[8,1,2] m[8,1,3] m[8,1,4] m[8,1,5] m[8,1,6] m[8,1,7]
 m[8,1,8] m[8,1,9] m[8,1,10] m[8,1,11] m[8,1,12] m[8,1,13] m[8,1,14]
 m[8,1,15] m[8,1,16] m[8,1,17] m[8,1,18] m[8,1,19] m[8,1,20] m[8,1,21]
 m[8,1,22] m[8,1,23] m[8,1,24] m[8,1,25] m[8,1,26] m[8,1,27] m[8,1,28]
 m[8,1,29] m[8,1,30] m[8,1,31] m[8,1,32] m[8,1,33] m[8,1,34] m[8,1,35]
 m[8,1,36] m[8,1,37] m[8,1,38] m[8,1,39] m[8,1,40] m[8,1,41] m[8,1,42]
 m[8,1,43] m[8,1,44] m[8,1,45] m[8,1,46] m[8,1,47] m[8,1,48] m[8,1,49]
 m[8,1,50] m[8,1,51] m[8,1,52] m[8,1,53] m[8,1,54] m[8,1,55] m[8,1,56]
 m[8,1,57] m[8,1,58] m[8,1,59] m[8,1,60] m[8,1,61] m[8,1,62] m[8,1,63]
 m[9,0,0] m[9,0,1] m[9,0,2] m[9,0,3] m[9,0,4] m[9,0,5] m[9,0,6] m[9,0,7]
 m[9,0,8] m[9,0,9] m[9,0,10] m[9,0,11] m[9,0,12] m[9,0,13] m[9,0,14]
 m[9,0,15] m[9,0,16] m[9,0,17] m[9,0,18] m[9,0,19] m[9,0,20] m[9,0,21]
 m[9,0,22] m[9,0,23] m[9,0,24] m[9,0,25] m[9,0,26] m[9,0,27] m[9,0,28]
 m[9,0,29] m[9,0,30] m[9,0,31] m[9,0,32] m[9,0,33] m[9,0,34] m[9,0,35]
 m[9,0,36] m[9,0,37] m[9,0,38] m[9,0,39] m[9,0,40] m[9,0,41] m[9,0,42]
 m[9,0,43] m[9,0,44] m[9,0,45] m[9,0,46] m[9,0,47] m[9,0,48] m[9,0,49]
 m[9,0,50] m[9,0,51] m[9,0,52] m[9,0,53] m[9,0,54] m[9,0,55] m[9,0,56]
 m[9,0,57] m[9,0,58] m[9,0,59] m[9,0,60] m[9,0,61] m[9,0,62] m[9,0,63]
 m[9,1,0] m[9,1,1] m[9,1,2] m[9,1,3] m[9,1,4] m[9,1,5] m[9,1,6] m[9,1,7]
 m[9,1,8] m[9,1,9] m[9,1,10] m[9,1,11] m[9,1,12] m[9,1,13] m[9,1,14]
 m[9,1,15] m[9,1,16] m[9,1,17] m[9,1,18] m[9,1,19] m[9,1,20] m[9,1,21]
 m[9,1,22] m[9,1,23] m[9,1,24] m[9,1,25] m[9,1,26] m[9,1,27] m[9,1,28]
 m[9,1,29] m[9,1,30] m[9,1,31] m[9,1,32] m[9,1,33] m[9,1,34] m[9,1,35]
 m[9,1,36] m[9,1,37] m[9,1,38] m[9,1,39] m[9,1,40] m[9,1,41] m[9,1,42]
 m[9,1,43] m[9,1,44] m[9,1,45] m[9,1,46] m[9,1,47] m[9,1,48] m[9,1,49]
 m[9,1,50] m[9,1,51] m[9,1,52] m[9,1,53] m[9,1,54] m[9,1,55] m[9,1,56]
 m[9,1,57] m[9,1,58] m[9,1,59] m[9,1,60] m[9,1,61] m[9,1,62] m[9,1,63]
 m[10,0,0] m[10,0,1] m[10,0,2] m[10,0,3] m[10,0,4] m[10,0,5] m[10,0,6]
 m[10,0,7] m[10,0,8] m[10,0,9] m[10,0,10] m[10,0,11] m[10,0,12] m[10,0,13]
 m[10,0,14] m[10,0,15] m[10,0,16] m[10,0,17] m[10,0,18] m[10,0,19]
 m[10,0,20] m[10,0,21] m[10,0,22] m[10,0,23] m[10,0,24] m[10,0,25]
 m[10,0,26] m[10,0,27] m[10,0,28] m[10,0,29] m[10,0,30] m[10,0,31]
 m[10,0,32] m[10,0,33] m[10,0,34] m[10,0,35] m[10,0,36] m[10,0,37]
 m[10,0,38] m[10,0,39] m[10,0,40] m[10,0,41] m[10,0,42] m[10,0,43]
 m[10,0,44] m[10,0,45] m[10,0,46] m[10,0,47] m[10,0,48] m[10,0,49]
 m[10,0,50] m[10,0,51] m[10,0,52] m[10,0,53] m[10,0,54] m[10,0,55]
 m[10,0,56] m[10,0,57] m[10,0,58] m[10,0,59] m[10,0,60] m[10,0,61]
 m[10,0,62] m[10,0,63] m[10,1,0] m[10,1,1] m[10,1,2] m[10,1,3] m[10,1,4]
 m[10,1,5] m[10,1,6] m[10,1,7] m[10,1,8] m[10,1,9] m[10,1,10] m[10,1,11]
 m[10,1,12] m[10,1,13] m[10,1,14] m[10,1,15] m[10,1,16] m[10,1,17]
 m[10,1,18] m[10,1,19] m[10,1,20] m[10,1,21] m[10,1,22] m[10,1,23]
 m[10,1,24] m[10,1,25] m[10,1,26] m[10,1,27] m[10,1,28] m[10,1,29]
 m[10,1,30] m[10,1,31] m[10,1,32] m[10,1,33] m[10,1,34] m[10,1,35]
 m[10,1,36] m[10,1,37] m[10,1,38] m[10,1,39] m[10,1,40] m[10,1,41]
 m[10,1,42] m[10,1,43] m[10,1,44] m[10,1,45] m[10,1,46] m[10,1,47]
 m[10,1,48] m[10,1,49] m[10,1,50] m[10,1,51] m[10,1,52] m[10,1,53]
 m[10,1,54] m[10,1,55] m[10,1,56] m[10,1,57] m[10,1,58] m[10,1,59]
 m[10,1,60] m[10,1,61] m[10,1,62] m[10,1,63] m[11,0,0] m[11,0,1] m[11,0,2]
 m[11,0,3] m[11,0,4] m[11,0,5] m[11,0,6] m[11,0,7] m[11,0,8] m[11,0,9]
 m[11,0,10] m[11,0,11] m[11,0,12] m[11,0,13] m[11,0,14] m[11,0,15]
 m[11,0,16] m[11,0,17] m[11,0,18] m[11,0,19] m[11,0,20] m[11,0,21]
 m[11,0,22] m[11,0,23] m[11,0,24] m[11,0,25] m[11,0,26] m[11,0,27]
 m[11,0,28] m[11,0,29] m[11,0,30] m[11,0,31] m[11,0,32] m[11,0,33]
 m[11,0,34] m[11,0,35] m[11,0,36] m[11,0,37] m[11,0,38] m[11,0,39]
 m[11,0,40] m[11,0,41] m[11,0,42] m[11,0,43] m[11,0,44] m[11,0,45]
 m[11,0,46] m[11,0,47] m[11,0,48] m[11,0,49] m[11,0,50] m[11,0,51]
 m[11,0,52] m[11,0,53] m[11,0,54] m[11,0,55] m[11,0,56] m[11,0,57]
 m[11,0,58] m[11,0,59] m[11,0,60] m[11,0,61] m[11,0,62] m[11,0,63]
 m[11,1,0] m[11,1,1] m[11,1,2] m[11,1,3] m[11,1,4] m[11,1,5] m[11,1,6]
 m[11,1,7] m[11,1,8] m[11,1,9] m[11,1,10] m[11,1,11] m[11,1,12] m[11,1,13]
 m[11,1,14] m[11,1,15] m[11,1,16] m[11,1,17] m[11,1,18] m[11,1,19]
 m[11,1,20] m[11,1,21] m[11,1,22] m[11,1,23] m[11,1,24] m[11,1,25]
 m[11,1,26] m[11,1,27] m[11,1,28] m[11,1,29] m[11,1,30] m[11,1,31]
 m[11,1,32] m[11,1,33] m[11,1,34] m[11,1,35] m[11,1,36] m[11,1,37]
 m[11,1,38] m[11,1,39] m[11,1,40] m[11,1,41] m[11,1,42] m[11,1,43]
 m[11,1,44] m[11,1,45] m[11,1,46] m[11,1,47] m[11,1,48] m[11,1,49]
 m[11,1,50] m[11,1,51] m[11,1,52] m[11,1,53] m[11,1,54] m[11,1,55]
 m[11,1,56] m[11,1,57] m[11,1,58] m[11,1,59] m[11,1,60] m[11,1,61]
 m[11,1,62] m[11,1,63] c[0,0,0.0] c[0,0,-3.0] c[0,0,-2.0] c[0,0,-1.41504]
 c[0,0,-1.0] c[0,1,0.0] c[0,1,-3.0] c[0,1,-2.0] c[0,1,-1.41504] c[0,1,-1.0]
 c[0,2,0.0] c[0,2,-3.0] c[0,2,-2.0] c[0,2,-1.41504] c[0,2,-1.0] c[0,3,0.0]
 c[0,3,-3.0] c[0,3,-2.0] c[0,3,-1.41504] c[0,3,-1.0] c[0,4,0.0] c[0,4,-3.0]
 c[0,4,-2.0] c[0,4,-1.41504] c[0,4,-1.0] c[0,5,0.0] c[0,5,-3.0] c[0,5,-2.0]
 c[0,5,-1.41504] c[0,5,-1.0] c[0,6,0.0] c[0,6,-3.0] c[0,6,-2.0]
 c[0,6,-1.41504] c[0,6,-1.0] c[0,7,0.0] c[0,7,-3.0] c[0,7,-2.0]
 c[0,7,-1.41504] c[0,7,-1.0] c[0,8,0.0] c[0,8,-3.0] c[0,8,-2.0]
 c[0,8,-1.41504] c[0,8,-1.0] c[0,9,0.0] c[0,9,-3.0] c[0,9,-2.0]
 c[0,9,-1.41504] c[0,9,-1.0] c[0,10,0.0] c[0,10,-3.0] c[0,10,-2.0]
 c[0,10,-1.41504] c[0,10,-1.0] c[0,11,0.0] c[0,11,-3.0] c[0,11,-2.0]
 c[0,11,-1.41504] c[0,11,-1.0] c[0,12,0.0] c[0,12,-3.0] c[0,12,-2.0]
 c[0,12,-1.41504] c[0,12,-1.0] c[0,13,0.0] c[0,13,-3.0] c[0,13,-2.0]
 c[0,13,-1.41504] c[0,13,-1.0] c[0,14,0.0] c[0,14,-3.0] c[0,14,-2.0]
 c[0,14,-1.41504] c[0,14,-1.0] c[0,15,0.0] c[0,15,-3.0] c[0,15,-2.0]
 c[0,15,-1.41504] c[0,15,-1.0] c[1,0,0.0] c[1,0,-3.0] c[1,0,-2.0]
 c[1,0,-1.41504] c[1,0,-1.0] c[1,1,0.0] c[1,1,-3.0] c[1,1,-2.0]
 c[1,1,-1.41504] c[1,1,-1.0] c[1,2,0.0] c[1,2,-3.0] c[1,2,-2.0]
 c[1,2,-1.41504] c[1,2,-1.0] c[1,3,0.0] c[1,3,-3.0] c[1,3,-2.0]
 c[1,3,-1.41504] c[1,3,-1.0] c[1,4,0.0] c[1,4,-3.0] c[1,4,-2.0]
 c[1,4,-1.41504] c[1,4,-1.0] c[1,5,0.0] c[1,5,-3.0] c[1,5,-2.0]
 c[1,5,-1.41504] c[1,5,-1.0] c[1,6,0.0] c[1,6,-3.0] c[1,6,-2.0]
 c[1,6,-1.41504] c[1,6,-1.0] c[1,7,0.0] c[1,7,-3.0] c[1,7,-2.0]
 c[1,7,-1.41504] c[1,7,-1.0] c[1,8,0.0] c[1,8,-3.0] c[1,8,-2.0]
 c[1,8,-1.41504] c[1,8,-1.0] c[1,9,0.0] c[1,9,-3.0] c[1,9,-2.0]
 c[1,9,-1.41504] c[1,9,-1.0] c[1,10,0.0] c[1,10,-3.0] c[1,10,-2.0]
 c[1,10,-1.41504] c[1,10,-1.0] c[1,11,0.0] c[1,11,-3.0] c[1,11,-2.0]
 c[1,11,-1.41504] c[1,11,-1.0] c[1,12,0.0] c[1,12,-3.0] c[1,12,-2.0]
 c[1,12,-1.41504] c[1,12,-1.0] c[1,13,0.0] c[1,13,-3.0] c[1,13,-2.0]
 c[1,13,-1.41504] c[1,13,-1.0] c[1,14,0.0] c[1,14,-3.0] c[1,14,-2.0]
 c[1,14,-1.41504] c[1,14,-1.0] c[1,15,0.0] c[1,15,-3.0] c[1,15,-2.0]
 c[1,15,-1.41504] c[1,15,-1.0] c[2,0,0.0] c[2,0,-3.0] c[2,0,-2.0]
 c[2,0,-1.41504] c[2,0,-1.0] c[2,1,0.0] c[2,1,-3.0] c[2,1,-2.0]
 c[2,1,-1.41504] c[2,1,-1.0] c[2,2,0.0] c[2,2,-3.0] c[2,2,-2.0]
 c[2,2,-1.41504] c[2,2,-1.0] c[2,3,0.0] c[2,3,-3.0] c[2,3,-2.0]
 c[2,3,-1.41504] c[2,3,-1.0] c[2,4,0.0] c[2,4,-3.0] c[2,4,-2.0]
 c[2,4,-1.41504] c[2,4,-1.0] c[2,5,0.0] c[2,5,-3.0] c[2,5,-2.0]
 c[2,5,-1.41504] c[2,5,-1.0] c[2,6,0.0] c[2,6,-3.0] c[2,6,-2.0]
 c[2,6,-1.41504] c[2,6,-1.0] c[2,7,0.0] c[2,7,-3.0] c[2,7,-2.0]
 c[2,7,-1.41504] c[2,7,-1.0] c[2,8,0.0] c[2,8,-3.0] c[2,8,-2.0]
 c[2,8,-1.41504] c[2,8,-1.0] c[2,9,0.0] c[2,9,-3.0] c[2,9,-2.0]
 c[2,9,-1.41504] c[2,9,-1.0] c[2,10,0.0] c[2,10,-3.0] c[2,10,-2.0]
 c[2,10,-1.41504] c[2,10,-1.0] c[2,11,0.0] c[2,11,-3.0] c[2,11,-2.0]
 c[2,11,-1.41504] c[2,11,-1.0] c[2,12,0.0] c[2,12,-3.0] c[2,12,-2.0]
 c[2,12,-1.41504] c[2,12,-1.0] c[2,13,0.0] c[2,13,-3.0] c[2,13,-2.0]
 c[2,13,-1.41504] c[2,13,-1.0] c[2,14,0.0] c[2,14,-3.0] c[2,14,-2.0]
 c[2,14,-1.41504] c[2,14,-1.0] c[2,15,0.0] c[2,15,-3.0] c[2,15,-2.0]
 c[2,15,-1.41504] c[2,15,-1.0] c[3,0,0.0] c[3,0,-3.0] c[3,0,-2.0]
 c[3,0,-1.41504] c[3,0,-1.0] c[3,1,0.0] c[3,1,-3.0] c[3,1,-2.0]
 c[3,1,-1.41504] c[3,1,-1.0] c[3,2,0.0] c[3,2,-3.0] c[3,2,-2.0]
 c[3,2,-1.41504] c[3,2,-1.0] c[3,3,0.0] c[3,3,-3.0] c[3,3,-2.0]
 c[3,3,-1.41504] c[3,3,-1.0] c[3,4,0.0] c[3,4,-3.0] c[3,4,-2.0]
 c[3,4,-1.41504] c[3,4,-1.0] c[3,5,0.0] c[3,5,-3.0] c[3,5,-2.0]
 c[3,5,-1.41504] c[3,5,-1.0] c[3,6,0.0] c[3,6,-3.0] c[3,6,-2.0]
 c[3,6,-1.41504] c[3,6,-1.0] c[3,7,0.0] c[3,7,-3.0] c[3,7,-2.0]
 c[3,7,-1.41504] c[3,7,-1.0] c[3,8,0.0] c[3,8,-3.0] c[3,8,-2.0]
 c[3,8,-1.41504] c[3,8,-1.0] c[3,9,0.0] c[3,9,-3.0] c[3,9,-2.0]
 c[3,9,-1.41504] c[3,9,-1.0] c[3,10,0.0] c[3,10,-3.0] c[3,10,-2.0]
 c[3,10,-1.41504] c[3,10,-1.0] c[3,11,0.0] c[3,11,-3.0] c[3,11,-2.0]
 c[3,11,-1.41504] c[3,11,-1.0] c[3,12,0.0] c[3,12,-3.0] c[3,12,-2.0]
 c[3,12,-1.41504] c[3,12,-1.0] c[3,13,0.0] c[3,13,-3.0] c[3,13,-2.0]
 c[3,13,-1.41504] c[3,13,-1.0] c[3,14,0.0] c[3,14,-3.0] c[3,14,-2.0]
 c[3,14,-1.41504] c[3,14,-1.0] c[3,15,0.0] c[3,15,-3.0] c[3,15,-2.0]
 c[3,15,-1.41504] c[3,15,-1.0] c[4,0,0.0] c[4,0,-3.0] c[4,0,-2.0]
 c[4,0,-1.41504] c[4,0,-1.0] c[4,1,0.0] c[4,1,-3.0] c[4,1,-2.0]
 c[4,1,-1.41504] c[4,1,-1.0] c[4,2,0.0] c[4,2,-3.0] c[4,2,-2.0]
 c[4,2,-1.41504] c[4,2,-1.0] c[4,3,0.0] c[4,3,-3.0] c[4,3,-2.0]
 c[4,3,-1.41504] c[4,3,-1.0] c[4,4,0.0] c[4,4,-3.0] c[4,4,-2.0]
 c[4,4,-1.41504] c[4,4,-1.0] c[4,5,0.0] c[4,5,-3.0] c[4,5,-2.0]
 c[4,5,-1.41504] c[4,5,-1.0] c[4,6,0.0] c[4,6,-3.0] c[4,6,-2.0]
 c[4,6,-1.41504] c[4,6,-1.0] c[4,7,0.0] c[4,7,-3.0] c[4,7,-2.0]
 c[4,7,-1.41504] c[4,7,-1.0] c[4,8,0.0] c[4,8,-3.0] c[4,8,-2.0]
 c[4,8,-1.41504] c[4,8,-1.0] c[4,9,0.0] c[4,9,-3.0] c[4,9,-2.0]
 c[4,9,-1.41504] c[4,9,-1.0] c[4,10,0.0] c[4,10,-3.0] c[4,10,-2.0]
 c[4,10,-1.41504] c[4,10,-1.0] c[4,11,0.0] c[4,11,-3.0] c[4,11,-2.0]
 c[4,11,-1.41504] c[4,11,-1.0] c[4,12,0.0] c[4,12,-3.0] c[4,12,-2.0]
 c[4,12,-1.41504] c[4,12,-1.0] c[4,13,0.0] c[4,13,-3.0] c[4,13,-2.0]
 c[4,13,-1.41504] c[4,13,-1.0] c[4,14,0.0] c[4,14,-3.0] c[4,14,-2.0]
 c[4,14,-1.41504] c[4,14,-1.0] c[4,15,0.0] c[4,15,-3.0] c[4,15,-2.0]
 c[4,15,-1.41504] c[4,15,-1.0] c[5,0,0.0] c[5,0,-3.0] c[5,0,-2.0]
 c[5,0,-1.41504] c[5,0,-1.0] c[5,1,0.0] c[5,1,-3.0] c[5,1,-2.0]
 c[5,1,-1.41504] c[5,1,-1.0] c[5,2,0.0] c[5,2,-3.0] c[5,2,-2.0]
 c[5,2,-1.41504] c[5,2,-1.0] c[5,3,0.0] c[5,3,-3.0] c[5,3,-2.0]
 c[5,3,-1.41504] c[5,3,-1.0] c[5,4,0.0] c[5,4,-3.0] c[5,4,-2.0]
 c[5,4,-1.41504] c[5,4,-1.0] c[5,5,0.0] c[5,5,-3.0] c[5,5,-2.0]
 c[5,5,-1.41504] c[5,5,-1.0] c[5,6,0.0] c[5,6,-3.0] c[5,6,-2.0]
 c[5,6,-1.41504] c[5,6,-1.0] c[5,7,0.0] c[5,7,-3.0] c[5,7,-2.0]
 c[5,7,-1.41504] c[5,7,-1.0] c[5,8,0.0] c[5,8,-3.0] c[5,8,-2.0]
 c[5,8,-1.41504] c[5,8,-1.0] c[5,9,0.0] c[5,9,-3.0] c[5,9,-2.0]
 c[5,9,-1.41504] c[5,9,-1.0] c[5,10,0.0] c[5,10,-3.0] c[5,10,-2.0]
 c[5,10,-1.41504] c[5,10,-1.0] c[5,11,0.0] c[5,11,-3.0] c[5,11,-2.0]
 c[5,11,-1.41504] c[5,11,-1.0] c[5,12,0.0] c[5,12,-3.0] c[5,12,-2.0]
 c[5,12,-1.41504] c[5,12,-1.0] c[5,13,0.0] c[5,13,-3.0] c[5,13,-2.0]
 c[5,13,-1.41504] c[5,13,-1.0] c[5,14,0.0] c[5,14,-3.0] c[5,14,-2.0]
 c[5,14,-1.41504] c[5,14,-1.0] c[5,15,0.0] c[5,15,-3.0] c[5,15,-2.0]
 c[5,15,-1.41504] c[5,15,-1.0] c[6,0,0.0] c[6,0,-3.0] c[6,0,-2.0]
 c[6,0,-1.41504] c[6,0,-1.0] c[6,1,0.0] c[6,1,-3.0] c[6,1,-2.0]
 c[6,1,-1.41504] c[6,1,-1.0] c[6,2,0.0] c[6,2,-3.0] c[6,2,-2.0]
 c[6,2,-1.41504] c[6,2,-1.0] c[6,3,0.0] c[6,3,-3.0] c[6,3,-2.0]
 c[6,3,-1.41504] c[6,3,-1.0] c[6,4,0.0] c[6,4,-3.0] c[6,4,-2.0]
 c[6,4,-1.41504] c[6,4,-1.0] c[6,5,0.0] c[6,5,-3.0] c[6,5,-2.0]
 c[6,5,-1.41504] c[6,5,-1.0] c[6,6,0.0] c[6,6,-3.0] c[6,6,-2.0]
 c[6,6,-1.41504] c[6,6,-1.0] c[6,7,0.0] c[6,7,-3.0] c[6,7,-2.0]
 c[6,7,-1.41504] c[6,7,-1.0] c[6,8,0.0] c[6,8,-3.0] c[6,8,-2.0]
 c[6,8,-1.41504] c[6,8,-1.0] c[6,9,0.0] c[6,9,-3.0] c[6,9,-2.0]
 c[6,9,-1.41504] c[6,9,-1.0] c[6,10,0.0] c[6,10,-3.0] c[6,10,-2.0]
 c[6,10,-1.41504] c[6,10,-1.0] c[6,11,0.0] c[6,11,-3.0] c[6,11,-2.0]
 c[6,11,-1.41504] c[6,11,-1.0] c[6,12,0.0] c[6,12,-3.0] c[6,12,-2.0]
 c[6,12,-1.41504] c[6,12,-1.0] c[6,13,0.0] c[6,13,-3.0] c[6,13,-2.0]
 c[6,13,-1.41504] c[6,13,-1.0] c[6,14,0.0] c[6,14,-3.0] c[6,14,-2.0]
 c[6,14,-1.41504] c[6,14,-1.0] c[6,15,0.0] c[6,15,-3.0] c[6,15,-2.0]
 c[6,15,-1.41504] c[6,15,-1.0] c[7,0,0.0] c[7,0,-3.0] c[7,0,-2.0]
 c[7,0,-1.41504] c[7,0,-1.0] c[7,1,0.0] c[7,1,-3.0] c[7,1,-2.0]
 c[7,1,-1.41504] c[7,1,-1.0] c[7,2,0.0] c[7,2,-3.0] c[7,2,-2.0]
 c[7,2,-1.41504] c[7,2,-1.0] c[7,3,0.0] c[7,3,-3.0] c[7,3,-2.0]
 c[7,3,-1.41504] c[7,3,-1.0] c[7,4,0.0] c[7,4,-3.0] c[7,4,-2.0]
 c[7,4,-1.41504] c[7,4,-1.0] c[7,5,0.0] c[7,5,-3.0] c[7,5,-2.0]
 c[7,5,-1.41504] c[7,5,-1.0] c[7,6,0.0] c[7,6,-3.0] c[7,6,-2.0]
 c[7,6,-1.41504] c[7,6,-1.0] c[7,7,0.0] c[7,7,-3.0] c[7,7,-2.0]
 c[7,7,-1.41504] c[7,7,-1.0] c[7,8,0.0] c[7,8,-3.0] c[7,8,-2.0]
 c[7,8,-1.41504] c[7,8,-1.0] c[7,9,0.0] c[7,9,-3.0] c[7,9,-2.0]
 c[7,9,-1.41504] c[7,9,-1.0] c[7,10,0.0] c[7,10,-3.0] c[7,10,-2.0]
 c[7,10,-1.41504] c[7,10,-1.0] c[7,11,0.0] c[7,11,-3.0] c[7,11,-2.0]
 c[7,11,-1.41504] c[7,11,-1.0] c[7,12,0.0] c[7,12,-3.0] c[7,12,-2.0]
 c[7,12,-1.41504] c[7,12,-1.0] c[7,13,0.0] c[7,13,-3.0] c[7,13,-2.0]
 c[7,13,-1.41504] c[7,13,-1.0] c[7,14,0.0] c[7,14,-3.0] c[7,14,-2.0]
 c[7,14,-1.41504] c[7,14,-1.0] c[7,15,0.0] c[7,15,-3.0] c[7,15,-2.0]
 c[7,15,-1.41504] c[7,15,-1.0] c[8,0,0.0] c[8,0,-3.0] c[8,0,-2.0]
 c[8,0,-1.41504] c[8,0,-1.0] c[8,1,0.0] c[8,1,-3.0] c[8,1,-2.0]
 c[8,1,-1.41504] c[8,1,-1.0] c[8,2,0.0] c[8,2,-3.0] c[8,2,-2.0]
 c[8,2,-1.41504] c[8,2,-1.0] c[8,3,0.0] c[8,3,-3.0] c[8,3,-2.0]
 c[8,3,-1.41504] c[8,3,-1.0] c[8,4,0.0] c[8,4,-3.0] c[8,4,-2.0]
 c[8,4,-1.41504] c[8,4,-1.0] c[8,5,0.0] c[8,5,-3.0] c[8,5,-2.0]
 c[8,5,-1.41504] c[8,5,-1.0] c[8,6,0.0] c[8,6,-3.0] c[8,6,-2.0]
 c[8,6,-1.41504] c[8,6,-1.0] c[8,7,0.0] c[8,7,-3.0] c[8,7,-2.0]
 c[8,7,-1.41504] c[8,7,-1.0] c[8,8,0.0] c[8,8,-3.0] c[8,8,-2.0]
 c[8,8,-1.41504] c[8,8,-1.0] c[8,9,0.0] c[8,9,-3.0] c[8,9,-2.0]
 c[8,9,-1.41504] c[8,9,-1.0] c[8,10,0.0] c[8,10,-3.0] c[8,10,-2.0]
 c[8,10,-1.41504] c[8,10,-1.0] c[8,11,0.0] c[8,11,-3.0] c[8,11,-2.0]
 c[8,11,-1.41504] c[8,11,-1.0] c[8,12,0.0] c[8,12,-3.0] c[8,12,-2.0]
 c[8,12,-1.41504] c[8,12,-1.0] c[8,13,0.0] c[8,13,-3.0] c[8,13,-2.0]
 c[8,13,-1.41504] c[8,13,-1.0] c[8,14,0.0] c[8,14,-3.0] c[8,14,-2.0]
 c[8,14,-1.41504] c[8,14,-1.0] c[8,15,0.0] c[8,15,-3.0] c[8,15,-2.0]
 c[8,15,-1.41504] c[8,15,-1.0] c[9,0,0.0] c[9,0,-3.0] c[9,0,-2.0]
 c[9,0,-1.41504] c[9,0,-1.0] c[9,1,0.0] c[9,1,-3.0] c[9,1,-2.0]
 c[9,1,-1.41504] c[9,1,-1.0] c[9,2,0.0] c[9,2,-3.0] c[9,2,-2.0]
 c[9,2,-1.41504] c[9,2,-1.0] c[9,3,0.0] c[9,3,-3.0] c[9,3,-2.0]
 c[9,3,-1.41504] c[9,3,-1.0] c[9,4,0.0] c[9,4,-3.0] c[9,4,-2.0]
 c[9,4,-1.41504] c[9,4,-1.0] c[9,5,0.0] c[9,5,-3.0] c[9,5,-2.0]
 c[9,5,-1.41504] c[9,5,-1.0] c[9,6,0.0] c[9,6,-3.0] c[9,6,-2.0]
 c[9,6,-1.41504] c[9,6,-1.0] c[9,7,0.0] c[9,7,-3.0] c[9,7,-2.0]
 c[9,7,-1.41504] c[9,7,-1.0] c[9,8,0.0] c[9,8,-3.0] c[9,8,-2.0]
 c[9,8,-1.41504] c[9,8,-1.0] c[9,9,0.0] c[9,9,-3.0] c[9,9,-2.0]
 c[9,9,-1.41504] c[9,9,-1.0] c[9,10,0.0] c[9,10,-3.0] c[9,10,-2.0]
 c[9,10,-1.41504] c[9,10,-1.0] c[9,11,0.0] c[9,11,-3.0] c[9,11,-2.0]
 c[9,11,-1.41504] c[9,11,-1.0] c[9,12,0.0] c[9,12,-3.0] c[9,12,-2.0]
 c[9,12,-1.41504] c[9,12,-1.0] c[9,13,0.0] c[9,13,-3.0] c[9,13,-2.0]
 c[9,13,-1.41504] c[9,13,-1.0] c[9,14,0.0] c[9,14,-3.0] c[9,14,-2.0]
 c[9,14,-1.41504] c[9,14,-1.0] c[9,15,0.0] c[9,15,-3.0] c[9,15,-2.0]
 c[9,15,-1.41504] c[9,15,-1.0] c[10,0,0.0] c[10,0,-3.0] c[10,0,-2.0]
 c[10,0,-1.41504] c[10,0,-1.0] c[10,1,0.0] c[10,1,-3.0] c[10,1,-2.0]
 c[10,1,-1.41504] c[10,1,-1.0] c[10,2,0.0] c[10,2,-3.0] c[10,2,-2.0]
 c[10,2,-1.41504] c[10,2,-1.0] c[10,3,0.0] c[10,3,-3.0] c[10,3,-2.0]
 c[10,3,-1.41504] c[10,3,-1.0] c[10,4,0.0] c[10,4,-3.0] c[10,4,-2.0]
 c[10,4,-1.41504] c[10,4,-1.0] c[10,5,0.0] c[10,5,-3.0] c[10,5,-2.0]
 c[10,5,-1.41504] c[10,5,-1.0] c[10,6,0.0] c[10,6,-3.0] c[10,6,-2.0]
 c[10,6,-1.41504] c[10,6,-1.0] c[10,7,0.0] c[10,7,-3.0] c[10,7,-2.0]
 c[10,7,-1.41504] c[10,7,-1.0] c[10,8,0.0] c[10,8,-3.0] c[10,8,-2.0]
 c[10,8,-1.41504] c[10,8,-1.0] c[10,9,0.0] c[10,9,-3.0] c[10,9,-2.0]
 c[10,9,-1.41504] c[10,9,-1.0] c[10,10,0.0] c[10,10,-3.0] c[10,10,-2.0]
 c[10,10,-1.41504] c[10,10,-1.0] c[10,11,0.0] c[10,11,-3.0] c[10,11,-2.0]
 c[10,11,-1.41504] c[10,11,-1.0] c[10,12,0.0] c[10,12,-3.0] c[10,12,-2.0]
 c[10,12,-1.41504] c[10,12,-1.0] c[10,13,0.0] c[10,13,-3.0] c[10,13,-2.0]
 c[10,13,-1.41504] c[10,13,-1.0] c[10,14,0.0] c[10,14,-3.0] c[10,14,-2.0]
 c[10,14,-1.41504] c[10,14,-1.0] c[10,15,0.0] c[10,15,-3.0] c[10,15,-2.0]
 c[10,15,-1.41504] c[10,15,-1.0] c[11,0,0.0] c[11,0,-3.0] c[11,0,-2.0]
 c[11,0,-1.41504] c[11,0,-1.0] c[11,1,0.0] c[11,1,-3.0] c[11,1,-2.0]
 c[11,1,-1.41504] c[11,1,-1.0] c[11,2,0.0] c[11,2,-3.0] c[11,2,-2.0]
 c[11,2,-1.41504] c[11,2,-1.0] c[11,3,0.0] c[11,3,-3.0] c[11,3,-2.0]
 c[11,3,-1.41504] c[11,3,-1.0] c[11,4,0.0] c[11,4,-3.0] c[11,4,-2.0]
 c[11,4,-1.41504] c[11,4,-1.0] c[11,5,0.0] c[11,5,-3.0] c[11,5,-2.0]
 c[11,5,-1.41504] c[11,5,-1.0] c[11,6,0.0] c[11,6,-3.0] c[11,6,-2.0]
 c[11,6,-1.41504] c[11,6,-1.0] c[11,7,0.0] c[11,7,-3.0] c[11,7,-2.0]
 c[11,7,-1.41504] c[11,7,-1.0] c[11,8,0.0] c[11,8,-3.0] c[11,8,-2.0]
 c[11,8,-1.41504] c[11,8,-1.0] c[11,9,0.0] c[11,9,-3.0] c[11,9,-2.0]
 c[11,9,-1.41504] c[11,9,-1.0] c[11,10,0.0] c[11,10,-3.0] c[11,10,-2.0]
 c[11,10,-1.41504] c[11,10,-1.0] c[11,11,0.0] c[11,11,-3.0] c[11,11,-2.0]
 c[11,11,-1.41504] c[11,11,-1.0] c[11,12,0.0] c[11,12,-3.0] c[11,12,-2.0]
 c[11,12,-1.41504] c[11,12,-1.0] c[11,13,0.0] c[11,13,-3.0] c[11,13,-2.0]
 c[11,13,-1.41504] c[11,13,-1.0] c[11,14,0.0] c[11,14,-3.0] c[11,14,-2.0]
 c[11,14,-1.41504] c[11,14,-1.0] c[11,15,0.0] c[11,15,-3.0] c[11,15,-2.0]
 c[11,15,-1.41504] c[11,15,-1.0]
End
