\ Model GIFT_SK_Quasi_Diff_MILP_LINEAR
\ LP format - for model browsing. Use MPS format to capture full model detail.
Minimize
 
Subject To
 R0: m[0,0,0] = 0
 R1: m[0,0,1] = 0
 R2: m[0,0,2] = 0
 R3: m[0,0,3] = 0
 R4: m[0,0,4] = 0
 R5: m[0,0,5] = 0
 R6: m[0,0,6] = 0
 R7: m[0,0,7] = 0
 R8: m[0,0,8] = 0
 R9: m[0,0,9] = 0
 R10: m[0,0,10] = 0
 R11: m[0,0,11] = 0
 R12: m[0,0,12] = 0
 R13: m[0,0,13] = 0
 R14: m[0,0,14] = 0
 R15: m[0,0,15] = 0
 R16: m[0,0,16] = 0
 R17: m[0,0,17] = 0
 R18: m[0,0,18] = 0
 R19: m[0,0,19] = 0
 R20: m[0,0,20] = 0
 R21: m[0,0,21] = 0
 R22: m[0,0,22] = 0
 R23: m[0,0,23] = 0
 R24: m[0,0,24] = 0
 R25: m[0,0,25] = 0
 R26: m[0,0,26] = 0
 R27: m[0,0,27] = 0
 R28: m[0,0,28] = 0
 R29: m[0,0,29] = 0
 R30: m[0,0,30] = 0
 R31: m[0,0,31] = 0
 R32: m[0,0,32] = 0
 R33: m[0,0,33] = 0
 R34: m[0,0,34] = 0
 R35: m[0,0,35] = 0
 R36: m[0,0,36] = 0
 R37: m[0,0,37] = 0
 R38: m[0,0,38] = 0
 R39: m[0,0,39] = 0
 R40: m[0,0,40] = 0
 R41: m[0,0,41] = 0
 R42: m[0,0,42] = 0
 R43: m[0,0,43] = 0
 R44: m[0,0,44] = 0
 R45: m[0,0,45] = 0
 R46: m[0,0,46] = 0
 R47: m[0,0,47] = 0
 R48: m[0,0,48] = 0
 R49: m[0,0,49] = 0
 R50: m[0,0,50] = 0
 R51: m[0,0,51] = 0
 R52: m[0,0,52] = 0
 R53: m[0,0,53] = 0
 R54: m[0,0,54] = 0
 R55: m[0,0,55] = 0
 R56: m[0,0,56] = 0
 R57: m[0,0,57] = 0
 R58: m[0,0,58] = 0
 R59: m[0,0,59] = 0
 R60: m[0,0,60] = 0
 R61: m[0,0,61] = 0
 R62: m[0,0,62] = 0
 R63: m[0,0,63] = 0
 R64: m[17,1,0] = 0
 R65: m[17,1,1] = 0
 R66: m[17,1,2] = 0
 R67: m[17,1,3] = 0
 R68: m[17,1,4] = 0
 R69: m[17,1,5] = 0
 R70: m[17,1,6] = 0
 R71: m[17,1,7] = 0
 R72: m[17,1,8] = 0
 R73: m[17,1,9] = 0
 R74: m[17,1,10] = 0
 R75: m[17,1,11] = 0
 R76: m[17,1,12] = 0
 R77: m[17,1,13] = 0
 R78: m[17,1,14] = 0
 R79: m[17,1,15] = 0
 R80: m[17,1,16] = 0
 R81: m[17,1,17] = 0
 R82: m[17,1,18] = 0
 R83: m[17,1,19] = 0
 R84: m[17,1,20] = 0
 R85: m[17,1,21] = 0
 R86: m[17,1,22] = 0
 R87: m[17,1,23] = 0
 R88: m[17,1,24] = 0
 R89: m[17,1,25] = 0
 R90: m[17,1,26] = 0
 R91: m[17,1,27] = 0
 R92: m[17,1,28] = 0
 R93: m[17,1,29] = 0
 R94: m[17,1,30] = 0
 R95: m[17,1,31] = 0
 R96: m[17,1,32] = 0
 R97: m[17,1,33] = 0
 R98: m[17,1,34] = 0
 R99: m[17,1,35] = 0
 R100: m[17,1,36] = 0
 R101: m[17,1,37] = 0
 R102: m[17,1,38] = 0
 R103: m[17,1,39] = 0
 R104: m[17,1,40] = 0
 R105: m[17,1,41] = 0
 R106: m[17,1,42] = 0
 R107: m[17,1,43] = 0
 R108: m[17,1,44] = 0
 R109: m[17,1,45] = 0
 R110: m[17,1,46] = 0
 R111: m[17,1,47] = 0
 R112: m[17,1,48] = 0
 R113: m[17,1,49] = 0
 R114: m[17,1,50] = 0
 R115: m[17,1,51] = 0
 R116: m[17,1,52] = 0
 R117: m[17,1,53] = 0
 R118: m[17,1,54] = 0
 R119: m[17,1,55] = 0
 R120: m[17,1,56] = 0
 R121: m[17,1,57] = 0
 R122: m[17,1,58] = 0
 R123: m[17,1,59] = 0
 R124: m[17,1,60] = 0
 R125: m[17,1,61] = 0
 R126: m[17,1,62] = 0
 R127: m[17,1,63] = 0
 R128: c[0,0,0.0] + c[0,0,-3.0] + c[0,0,-2.0] + c[0,0,-1.41504]
   + c[0,0,-1.0] = 1
 R129: - m[0,1,0] - 500 c[0,0,0.0] >= -500
 R130: 3 m[0,0,0] - 4 m[0,0,1] - 4 m[0,0,2] + 3 m[0,0,3] + 3 m[0,1,0]
   - 4 m[0,1,1] + 3 m[0,1,2] + 3 m[0,1,3] - 500 c[0,0,0.0] >= -500
 R131: - 3 m[0,0,0] + 3 m[0,0,1] + 3 m[0,0,2] - 3 m[0,0,3] + 3 m[0,1,0]
   + 3 m[0,1,1] - 3 m[0,1,2] - 3 m[0,1,3] - 500 c[0,0,0.0] >= -500
 R132: c[0,0,-3.0] = 0
 R133: c[0,0,-2.0] = 0
 R134: c[0,0,-1.41504] = 0
 R135: c[0,0,-1.0] = 0
 R136: c[0,1,0.0] + c[0,1,-3.0] + c[0,1,-2.0] + c[0,1,-1.41504]
   + c[0,1,-1.0] = 1
 R137: - m[0,1,4] - 500 c[0,1,0.0] >= -500
 R138: 3 m[0,0,4] - 4 m[0,0,5] - 4 m[0,0,6] + 3 m[0,0,7] + 3 m[0,1,4]
   - 4 m[0,1,5] + 3 m[0,1,6] + 3 m[0,1,7] - 500 c[0,1,0.0] >= -500
 R139: - 3 m[0,0,4] + 3 m[0,0,5] + 3 m[0,0,6] - 3 m[0,0,7] + 3 m[0,1,4]
   + 3 m[0,1,5] - 3 m[0,1,6] - 3 m[0,1,7] - 500 c[0,1,0.0] >= -500
 R140: c[0,1,-3.0] = 0
 R141: c[0,1,-2.0] = 0
 R142: c[0,1,-1.41504] = 0
 R143: c[0,1,-1.0] = 0
 R144: c[0,2,0.0] + c[0,2,-3.0] + c[0,2,-2.0] + c[0,2,-1.41504]
   + c[0,2,-1.0] = 1
 R145: c[0,2,0.0] = 0
 R146: c[0,2,-3.0] = 0
 R147: - m[0,0,10] - m[0,1,9] - m[0,1,11] - 500 c[0,2,-2.0] >= -502
 R148: m[0,0,10] - m[0,1,9] + m[0,1,11] - 500 c[0,2,-2.0] >= -500
 R149: m[0,0,9] + m[0,0,10] - m[0,1,10] - 500 c[0,2,-2.0] >= -500
 R150: m[0,0,10] + m[0,1,9] - m[0,1,11] - 500 c[0,2,-2.0] >= -500
 R151: - m[0,0,9] - m[0,0,10] - m[0,1,10] - 500 c[0,2,-2.0] >= -502
 R152: - m[0,0,9] + m[0,0,10] + m[0,1,10] - 500 c[0,2,-2.0] >= -500
 R153: - m[0,0,10] + m[0,1,9] + m[0,1,11] - 500 c[0,2,-2.0] >= -500
 R154: m[0,0,9] - m[0,0,10] + m[0,1,10] - 500 c[0,2,-2.0] >= -500
 R155: c[0,2,-1.41504] = 0
 R156: c[0,2,-1.0] = 0
 R157: c[0,3,0.0] + c[0,3,-3.0] + c[0,3,-2.0] + c[0,3,-1.41504]
   + c[0,3,-1.0] = 1
 R158: - m[0,1,12] - 500 c[0,3,0.0] >= -500
 R159: 3 m[0,0,12] - 4 m[0,0,13] - 4 m[0,0,14] + 3 m[0,0,15] + 3 m[0,1,12]
   - 4 m[0,1,13] + 3 m[0,1,14] + 3 m[0,1,15] - 500 c[0,3,0.0] >= -500
 R160: - 3 m[0,0,12] + 3 m[0,0,13] + 3 m[0,0,14] - 3 m[0,0,15]
   + 3 m[0,1,12] + 3 m[0,1,13] - 3 m[0,1,14] - 3 m[0,1,15] - 500 c[0,3,0.0]
   >= -500
 R161: c[0,3,-3.0] = 0
 R162: c[0,3,-2.0] = 0
 R163: c[0,3,-1.41504] = 0
 R164: c[0,3,-1.0] = 0
 R165: c[0,4,0.0] + c[0,4,-3.0] + c[0,4,-2.0] + c[0,4,-1.41504]
   + c[0,4,-1.0] = 1
 R166: - m[0,1,16] - 500 c[0,4,0.0] >= -500
 R167: 3 m[0,0,16] - 4 m[0,0,17] - 4 m[0,0,18] + 3 m[0,0,19] + 3 m[0,1,16]
   - 4 m[0,1,17] + 3 m[0,1,18] + 3 m[0,1,19] - 500 c[0,4,0.0] >= -500
 R168: - 3 m[0,0,16] + 3 m[0,0,17] + 3 m[0,0,18] - 3 m[0,0,19]
   + 3 m[0,1,16] + 3 m[0,1,17] - 3 m[0,1,18] - 3 m[0,1,19] - 500 c[0,4,0.0]
   >= -500
 R169: c[0,4,-3.0] = 0
 R170: c[0,4,-2.0] = 0
 R171: c[0,4,-1.41504] = 0
 R172: c[0,4,-1.0] = 0
 R173: c[0,5,0.0] + c[0,5,-3.0] + c[0,5,-2.0] + c[0,5,-1.41504]
   + c[0,5,-1.0] = 1
 R174: - m[0,1,20] - 500 c[0,5,0.0] >= -500
 R175: 3 m[0,0,20] - 4 m[0,0,21] - 4 m[0,0,22] + 3 m[0,0,23] + 3 m[0,1,20]
   - 4 m[0,1,21] + 3 m[0,1,22] + 3 m[0,1,23] - 500 c[0,5,0.0] >= -500
 R176: - 3 m[0,0,20] + 3 m[0,0,21] + 3 m[0,0,22] - 3 m[0,0,23]
   + 3 m[0,1,20] + 3 m[0,1,21] - 3 m[0,1,22] - 3 m[0,1,23] - 500 c[0,5,0.0]
   >= -500
 R177: c[0,5,-3.0] = 0
 R178: c[0,5,-2.0] = 0
 R179: c[0,5,-1.41504] = 0
 R180: c[0,5,-1.0] = 0
 R181: c[0,6,0.0] + c[0,6,-3.0] + c[0,6,-2.0] + c[0,6,-1.41504]
   + c[0,6,-1.0] = 1
 R182: - m[0,1,24] - 500 c[0,6,0.0] >= -500
 R183: 3 m[0,0,24] - 4 m[0,0,25] - 4 m[0,0,26] + 3 m[0,0,27] + 3 m[0,1,24]
   - 4 m[0,1,25] + 3 m[0,1,26] + 3 m[0,1,27] - 500 c[0,6,0.0] >= -500
 R184: - 3 m[0,0,24] + 3 m[0,0,25] + 3 m[0,0,26] - 3 m[0,0,27]
   + 3 m[0,1,24] + 3 m[0,1,25] - 3 m[0,1,26] - 3 m[0,1,27] - 500 c[0,6,0.0]
   >= -500
 R185: c[0,6,-3.0] = 0
 R186: c[0,6,-2.0] = 0
 R187: c[0,6,-1.41504] = 0
 R188: c[0,6,-1.0] = 0
 R189: c[0,7,0.0] + c[0,7,-3.0] + c[0,7,-2.0] + c[0,7,-1.41504]
   + c[0,7,-1.0] = 1
 R190: - m[0,1,28] - 500 c[0,7,0.0] >= -500
 R191: 3 m[0,0,28] - 4 m[0,0,29] - 4 m[0,0,30] + 3 m[0,0,31] + 3 m[0,1,28]
   - 4 m[0,1,29] + 3 m[0,1,30] + 3 m[0,1,31] - 500 c[0,7,0.0] >= -500
 R192: - 3 m[0,0,28] + 3 m[0,0,29] + 3 m[0,0,30] - 3 m[0,0,31]
   + 3 m[0,1,28] + 3 m[0,1,29] - 3 m[0,1,30] - 3 m[0,1,31] - 500 c[0,7,0.0]
   >= -500
 R193: c[0,7,-3.0] = 0
 R194: c[0,7,-2.0] = 0
 R195: c[0,7,-1.41504] = 0
 R196: c[0,7,-1.0] = 0
 R197: c[0,8,0.0] + c[0,8,-3.0] + c[0,8,-2.0] + c[0,8,-1.41504]
   + c[0,8,-1.0] = 1
 R198: - m[0,1,32] - 500 c[0,8,0.0] >= -500
 R199: 3 m[0,0,32] - 4 m[0,0,33] - 4 m[0,0,34] + 3 m[0,0,35] + 3 m[0,1,32]
   - 4 m[0,1,33] + 3 m[0,1,34] + 3 m[0,1,35] - 500 c[0,8,0.0] >= -500
 R200: - 3 m[0,0,32] + 3 m[0,0,33] + 3 m[0,0,34] - 3 m[0,0,35]
   + 3 m[0,1,32] + 3 m[0,1,33] - 3 m[0,1,34] - 3 m[0,1,35] - 500 c[0,8,0.0]
   >= -500
 R201: c[0,8,-3.0] = 0
 R202: c[0,8,-2.0] = 0
 R203: c[0,8,-1.41504] = 0
 R204: c[0,8,-1.0] = 0
 R205: c[0,9,0.0] + c[0,9,-3.0] + c[0,9,-2.0] + c[0,9,-1.41504]
   + c[0,9,-1.0] = 1
 R206: - m[0,1,36] - 500 c[0,9,0.0] >= -500
 R207: 3 m[0,0,36] - 4 m[0,0,37] - 4 m[0,0,38] + 3 m[0,0,39] + 3 m[0,1,36]
   - 4 m[0,1,37] + 3 m[0,1,38] + 3 m[0,1,39] - 500 c[0,9,0.0] >= -500
 R208: - 3 m[0,0,36] + 3 m[0,0,37] + 3 m[0,0,38] - 3 m[0,0,39]
   + 3 m[0,1,36] + 3 m[0,1,37] - 3 m[0,1,38] - 3 m[0,1,39] - 500 c[0,9,0.0]
   >= -500
 R209: c[0,9,-3.0] = 0
 R210: c[0,9,-2.0] = 0
 R211: c[0,9,-1.41504] = 0
 R212: c[0,9,-1.0] = 0
 R213: c[0,10,0.0] + c[0,10,-3.0] + c[0,10,-2.0] + c[0,10,-1.41504]
   + c[0,10,-1.0] = 1
 R214: - m[0,1,40] - 500 c[0,10,0.0] >= -500
 R215: 3 m[0,0,40] - 4 m[0,0,41] - 4 m[0,0,42] + 3 m[0,0,43] + 3 m[0,1,40]
   - 4 m[0,1,41] + 3 m[0,1,42] + 3 m[0,1,43] - 500 c[0,10,0.0] >= -500
 R216: - 3 m[0,0,40] + 3 m[0,0,41] + 3 m[0,0,42] - 3 m[0,0,43]
   + 3 m[0,1,40] + 3 m[0,1,41] - 3 m[0,1,42] - 3 m[0,1,43]
   - 500 c[0,10,0.0] >= -500
 R217: c[0,10,-3.0] = 0
 R218: c[0,10,-2.0] = 0
 R219: c[0,10,-1.41504] = 0
 R220: c[0,10,-1.0] = 0
 R221: c[0,11,0.0] + c[0,11,-3.0] + c[0,11,-2.0] + c[0,11,-1.41504]
   + c[0,11,-1.0] = 1
 R222: c[0,11,0.0] = 0
 R223: c[0,11,-3.0] = 0
 R224: - m[0,0,46] - m[0,1,45] - m[0,1,47] - 500 c[0,11,-2.0] >= -502
 R225: m[0,0,46] - m[0,1,45] + m[0,1,47] - 500 c[0,11,-2.0] >= -500
 R226: m[0,0,45] + m[0,0,46] - m[0,1,46] - 500 c[0,11,-2.0] >= -500
 R227: m[0,0,46] + m[0,1,45] - m[0,1,47] - 500 c[0,11,-2.0] >= -500
 R228: - m[0,0,45] - m[0,0,46] - m[0,1,46] - 500 c[0,11,-2.0] >= -502
 R229: - m[0,0,45] + m[0,0,46] + m[0,1,46] - 500 c[0,11,-2.0] >= -500
 R230: - m[0,0,46] + m[0,1,45] + m[0,1,47] - 500 c[0,11,-2.0] >= -500
 R231: m[0,0,45] - m[0,0,46] + m[0,1,46] - 500 c[0,11,-2.0] >= -500
 R232: c[0,11,-1.41504] = 0
 R233: c[0,11,-1.0] = 0
 R234: c[0,12,0.0] + c[0,12,-3.0] + c[0,12,-2.0] + c[0,12,-1.41504]
   + c[0,12,-1.0] = 1
 R235: - m[0,1,48] - 500 c[0,12,0.0] >= -500
 R236: 3 m[0,0,48] - 4 m[0,0,49] - 4 m[0,0,50] + 3 m[0,0,51] + 3 m[0,1,48]
   - 4 m[0,1,49] + 3 m[0,1,50] + 3 m[0,1,51] - 500 c[0,12,0.0] >= -500
 R237: - 3 m[0,0,48] + 3 m[0,0,49] + 3 m[0,0,50] - 3 m[0,0,51]
   + 3 m[0,1,48] + 3 m[0,1,49] - 3 m[0,1,50] - 3 m[0,1,51]
   - 500 c[0,12,0.0] >= -500
 R238: c[0,12,-3.0] = 0
 R239: c[0,12,-2.0] = 0
 R240: c[0,12,-1.41504] = 0
 R241: c[0,12,-1.0] = 0
 R242: c[0,13,0.0] + c[0,13,-3.0] + c[0,13,-2.0] + c[0,13,-1.41504]
   + c[0,13,-1.0] = 1
 R243: - m[0,1,52] - 500 c[0,13,0.0] >= -500
 R244: 3 m[0,0,52] - 4 m[0,0,53] - 4 m[0,0,54] + 3 m[0,0,55] + 3 m[0,1,52]
   - 4 m[0,1,53] + 3 m[0,1,54] + 3 m[0,1,55] - 500 c[0,13,0.0] >= -500
 R245: - 3 m[0,0,52] + 3 m[0,0,53] + 3 m[0,0,54] - 3 m[0,0,55]
   + 3 m[0,1,52] + 3 m[0,1,53] - 3 m[0,1,54] - 3 m[0,1,55]
   - 500 c[0,13,0.0] >= -500
 R246: c[0,13,-3.0] = 0
 R247: c[0,13,-2.0] = 0
 R248: c[0,13,-1.41504] = 0
 R249: c[0,13,-1.0] = 0
 R250: c[0,14,0.0] + c[0,14,-3.0] + c[0,14,-2.0] + c[0,14,-1.41504]
   + c[0,14,-1.0] = 1
 R251: - m[0,1,56] - 500 c[0,14,0.0] >= -500
 R252: 3 m[0,0,56] - 4 m[0,0,57] - 4 m[0,0,58] + 3 m[0,0,59] + 3 m[0,1,56]
   - 4 m[0,1,57] + 3 m[0,1,58] + 3 m[0,1,59] - 500 c[0,14,0.0] >= -500
 R253: - 3 m[0,0,56] + 3 m[0,0,57] + 3 m[0,0,58] - 3 m[0,0,59]
   + 3 m[0,1,56] + 3 m[0,1,57] - 3 m[0,1,58] - 3 m[0,1,59]
   - 500 c[0,14,0.0] >= -500
 R254: c[0,14,-3.0] = 0
 R255: c[0,14,-2.0] = 0
 R256: c[0,14,-1.41504] = 0
 R257: c[0,14,-1.0] = 0
 R258: c[0,15,0.0] + c[0,15,-3.0] + c[0,15,-2.0] + c[0,15,-1.41504]
   + c[0,15,-1.0] = 1
 R259: - m[0,1,60] - 500 c[0,15,0.0] >= -500
 R260: 3 m[0,0,60] - 4 m[0,0,61] - 4 m[0,0,62] + 3 m[0,0,63] + 3 m[0,1,60]
   - 4 m[0,1,61] + 3 m[0,1,62] + 3 m[0,1,63] - 500 c[0,15,0.0] >= -500
 R261: - 3 m[0,0,60] + 3 m[0,0,61] + 3 m[0,0,62] - 3 m[0,0,63]
   + 3 m[0,1,60] + 3 m[0,1,61] - 3 m[0,1,62] - 3 m[0,1,63]
   - 500 c[0,15,0.0] >= -500
 R262: c[0,15,-3.0] = 0
 R263: c[0,15,-2.0] = 0
 R264: c[0,15,-1.41504] = 0
 R265: c[0,15,-1.0] = 0
 R266: c[1,0,0.0] + c[1,0,-3.0] + c[1,0,-2.0] + c[1,0,-1.41504]
   + c[1,0,-1.0] = 1
 R267: - m[1,1,0] - 500 c[1,0,0.0] >= -500
 R268: 3 m[1,0,0] - 4 m[1,0,1] - 4 m[1,0,2] + 3 m[1,0,3] + 3 m[1,1,0]
   - 4 m[1,1,1] + 3 m[1,1,2] + 3 m[1,1,3] - 500 c[1,0,0.0] >= -500
 R269: - 3 m[1,0,0] + 3 m[1,0,1] + 3 m[1,0,2] - 3 m[1,0,3] + 3 m[1,1,0]
   + 3 m[1,1,1] - 3 m[1,1,2] - 3 m[1,1,3] - 500 c[1,0,0.0] >= -500
 R270: c[1,0,-3.0] = 0
 R271: c[1,0,-2.0] = 0
 R272: c[1,0,-1.41504] = 0
 R273: c[1,0,-1.0] = 0
 R274: c[1,1,0.0] + c[1,1,-3.0] + c[1,1,-2.0] + c[1,1,-1.41504]
   + c[1,1,-1.0] = 1
 R275: - m[1,1,4] - 500 c[1,1,0.0] >= -500
 R276: 3 m[1,0,4] - 4 m[1,0,5] - 4 m[1,0,6] + 3 m[1,0,7] + 3 m[1,1,4]
   - 4 m[1,1,5] + 3 m[1,1,6] + 3 m[1,1,7] - 500 c[1,1,0.0] >= -500
 R277: - 3 m[1,0,4] + 3 m[1,0,5] + 3 m[1,0,6] - 3 m[1,0,7] + 3 m[1,1,4]
   + 3 m[1,1,5] - 3 m[1,1,6] - 3 m[1,1,7] - 500 c[1,1,0.0] >= -500
 R278: c[1,1,-3.0] = 0
 R279: c[1,1,-2.0] = 0
 R280: c[1,1,-1.41504] = 0
 R281: c[1,1,-1.0] = 0
 R282: c[1,2,0.0] + c[1,2,-3.0] + c[1,2,-2.0] + c[1,2,-1.41504]
   + c[1,2,-1.0] = 1
 R283: - m[1,1,8] - 500 c[1,2,0.0] >= -500
 R284: 3 m[1,0,8] - 4 m[1,0,9] - 4 m[1,0,10] + 3 m[1,0,11] + 3 m[1,1,8]
   - 4 m[1,1,9] + 3 m[1,1,10] + 3 m[1,1,11] - 500 c[1,2,0.0] >= -500
 R285: - 3 m[1,0,8] + 3 m[1,0,9] + 3 m[1,0,10] - 3 m[1,0,11] + 3 m[1,1,8]
   + 3 m[1,1,9] - 3 m[1,1,10] - 3 m[1,1,11] - 500 c[1,2,0.0] >= -500
 R286: c[1,2,-3.0] = 0
 R287: c[1,2,-2.0] = 0
 R288: c[1,2,-1.41504] = 0
 R289: c[1,2,-1.0] = 0
 R290: c[1,3,0.0] + c[1,3,-3.0] + c[1,3,-2.0] + c[1,3,-1.41504]
   + c[1,3,-1.0] = 1
 R291: - m[1,1,12] - 500 c[1,3,0.0] >= -500
 R292: 3 m[1,0,12] - 4 m[1,0,13] - 4 m[1,0,14] + 3 m[1,0,15] + 3 m[1,1,12]
   - 4 m[1,1,13] + 3 m[1,1,14] + 3 m[1,1,15] - 500 c[1,3,0.0] >= -500
 R293: - 3 m[1,0,12] + 3 m[1,0,13] + 3 m[1,0,14] - 3 m[1,0,15]
   + 3 m[1,1,12] + 3 m[1,1,13] - 3 m[1,1,14] - 3 m[1,1,15] - 500 c[1,3,0.0]
   >= -500
 R294: c[1,3,-3.0] = 0
 R295: c[1,3,-2.0] = 0
 R296: c[1,3,-1.41504] = 0
 R297: c[1,3,-1.0] = 0
 R298: c[1,4,0.0] + c[1,4,-3.0] + c[1,4,-2.0] + c[1,4,-1.41504]
   + c[1,4,-1.0] = 1
 R299: - m[1,1,16] - 500 c[1,4,0.0] >= -500
 R300: 3 m[1,0,16] - 4 m[1,0,17] - 4 m[1,0,18] + 3 m[1,0,19] + 3 m[1,1,16]
   - 4 m[1,1,17] + 3 m[1,1,18] + 3 m[1,1,19] - 500 c[1,4,0.0] >= -500
 R301: - 3 m[1,0,16] + 3 m[1,0,17] + 3 m[1,0,18] - 3 m[1,0,19]
   + 3 m[1,1,16] + 3 m[1,1,17] - 3 m[1,1,18] - 3 m[1,1,19] - 500 c[1,4,0.0]
   >= -500
 R302: c[1,4,-3.0] = 0
 R303: c[1,4,-2.0] = 0
 R304: c[1,4,-1.41504] = 0
 R305: c[1,4,-1.0] = 0
 R306: c[1,5,0.0] + c[1,5,-3.0] + c[1,5,-2.0] + c[1,5,-1.41504]
   + c[1,5,-1.0] = 1
 R307: - m[1,1,20] - 500 c[1,5,0.0] >= -500
 R308: 3 m[1,0,20] - 4 m[1,0,21] - 4 m[1,0,22] + 3 m[1,0,23] + 3 m[1,1,20]
   - 4 m[1,1,21] + 3 m[1,1,22] + 3 m[1,1,23] - 500 c[1,5,0.0] >= -500
 R309: - 3 m[1,0,20] + 3 m[1,0,21] + 3 m[1,0,22] - 3 m[1,0,23]
   + 3 m[1,1,20] + 3 m[1,1,21] - 3 m[1,1,22] - 3 m[1,1,23] - 500 c[1,5,0.0]
   >= -500
 R310: c[1,5,-3.0] = 0
 R311: c[1,5,-2.0] = 0
 R312: c[1,5,-1.41504] = 0
 R313: c[1,5,-1.0] = 0
 R314: c[1,6,0.0] + c[1,6,-3.0] + c[1,6,-2.0] + c[1,6,-1.41504]
   + c[1,6,-1.0] = 1
 R315: - m[1,1,24] - 500 c[1,6,0.0] >= -500
 R316: 3 m[1,0,24] - 4 m[1,0,25] - 4 m[1,0,26] + 3 m[1,0,27] + 3 m[1,1,24]
   - 4 m[1,1,25] + 3 m[1,1,26] + 3 m[1,1,27] - 500 c[1,6,0.0] >= -500
 R317: - 3 m[1,0,24] + 3 m[1,0,25] + 3 m[1,0,26] - 3 m[1,0,27]
   + 3 m[1,1,24] + 3 m[1,1,25] - 3 m[1,1,26] - 3 m[1,1,27] - 500 c[1,6,0.0]
   >= -500
 R318: c[1,6,-3.0] = 0
 R319: c[1,6,-2.0] = 0
 R320: c[1,6,-1.41504] = 0
 R321: c[1,6,-1.0] = 0
 R322: c[1,7,0.0] + c[1,7,-3.0] + c[1,7,-2.0] + c[1,7,-1.41504]
   + c[1,7,-1.0] = 1
 R323: - m[1,1,28] - 500 c[1,7,0.0] >= -500
 R324: 3 m[1,0,28] - 4 m[1,0,29] - 4 m[1,0,30] + 3 m[1,0,31] + 3 m[1,1,28]
   - 4 m[1,1,29] + 3 m[1,1,30] + 3 m[1,1,31] - 500 c[1,7,0.0] >= -500
 R325: - 3 m[1,0,28] + 3 m[1,0,29] + 3 m[1,0,30] - 3 m[1,0,31]
   + 3 m[1,1,28] + 3 m[1,1,29] - 3 m[1,1,30] - 3 m[1,1,31] - 500 c[1,7,0.0]
   >= -500
 R326: c[1,7,-3.0] = 0
 R327: c[1,7,-2.0] = 0
 R328: c[1,7,-1.41504] = 0
 R329: c[1,7,-1.0] = 0
 R330: c[1,8,0.0] + c[1,8,-3.0] + c[1,8,-2.0] + c[1,8,-1.41504]
   + c[1,8,-1.0] = 1
 R331: - m[1,1,32] - 500 c[1,8,0.0] >= -500
 R332: 3 m[1,0,32] - 4 m[1,0,33] - 4 m[1,0,34] + 3 m[1,0,35] + 3 m[1,1,32]
   - 4 m[1,1,33] + 3 m[1,1,34] + 3 m[1,1,35] - 500 c[1,8,0.0] >= -500
 R333: - 3 m[1,0,32] + 3 m[1,0,33] + 3 m[1,0,34] - 3 m[1,0,35]
   + 3 m[1,1,32] + 3 m[1,1,33] - 3 m[1,1,34] - 3 m[1,1,35] - 500 c[1,8,0.0]
   >= -500
 R334: c[1,8,-3.0] = 0
 R335: c[1,8,-2.0] = 0
 R336: c[1,8,-1.41504] = 0
 R337: c[1,8,-1.0] = 0
 R338: c[1,9,0.0] + c[1,9,-3.0] + c[1,9,-2.0] + c[1,9,-1.41504]
   + c[1,9,-1.0] = 1
 R339: - m[1,1,36] - 500 c[1,9,0.0] >= -500
 R340: 3 m[1,0,36] - 4 m[1,0,37] - 4 m[1,0,38] + 3 m[1,0,39] + 3 m[1,1,36]
   - 4 m[1,1,37] + 3 m[1,1,38] + 3 m[1,1,39] - 500 c[1,9,0.0] >= -500
 R341: - 3 m[1,0,36] + 3 m[1,0,37] + 3 m[1,0,38] - 3 m[1,0,39]
   + 3 m[1,1,36] + 3 m[1,1,37] - 3 m[1,1,38] - 3 m[1,1,39] - 500 c[1,9,0.0]
   >= -500
 R342: c[1,9,-3.0] = 0
 R343: c[1,9,-2.0] = 0
 R344: c[1,9,-1.41504] = 0
 R345: c[1,9,-1.0] = 0
 R346: c[1,10,0.0] + c[1,10,-3.0] + c[1,10,-2.0] + c[1,10,-1.41504]
   + c[1,10,-1.0] = 1
 R347: - m[1,1,40] - 500 c[1,10,0.0] >= -500
 R348: 3 m[1,0,40] - 4 m[1,0,41] - 4 m[1,0,42] + 3 m[1,0,43] + 3 m[1,1,40]
   - 4 m[1,1,41] + 3 m[1,1,42] + 3 m[1,1,43] - 500 c[1,10,0.0] >= -500
 R349: - 3 m[1,0,40] + 3 m[1,0,41] + 3 m[1,0,42] - 3 m[1,0,43]
   + 3 m[1,1,40] + 3 m[1,1,41] - 3 m[1,1,42] - 3 m[1,1,43]
   - 500 c[1,10,0.0] >= -500
 R350: c[1,10,-3.0] = 0
 R351: c[1,10,-2.0] = 0
 R352: c[1,10,-1.41504] = 0
 R353: c[1,10,-1.0] = 0
 R354: c[1,11,0.0] + c[1,11,-3.0] + c[1,11,-2.0] + c[1,11,-1.41504]
   + c[1,11,-1.0] = 1
 R355: - m[1,1,44] - 500 c[1,11,0.0] >= -500
 R356: 3 m[1,0,44] - 4 m[1,0,45] - 4 m[1,0,46] + 3 m[1,0,47] + 3 m[1,1,44]
   - 4 m[1,1,45] + 3 m[1,1,46] + 3 m[1,1,47] - 500 c[1,11,0.0] >= -500
 R357: - 3 m[1,0,44] + 3 m[1,0,45] + 3 m[1,0,46] - 3 m[1,0,47]
   + 3 m[1,1,44] + 3 m[1,1,45] - 3 m[1,1,46] - 3 m[1,1,47]
   - 500 c[1,11,0.0] >= -500
 R358: c[1,11,-3.0] = 0
 R359: c[1,11,-2.0] = 0
 R360: c[1,11,-1.41504] = 0
 R361: c[1,11,-1.0] = 0
 R362: c[1,12,0.0] + c[1,12,-3.0] + c[1,12,-2.0] + c[1,12,-1.41504]
   + c[1,12,-1.0] = 1
 R363: - m[1,1,48] - 500 c[1,12,0.0] >= -500
 R364: 3 m[1,0,48] - 4 m[1,0,49] - 4 m[1,0,50] + 3 m[1,0,51] + 3 m[1,1,48]
   - 4 m[1,1,49] + 3 m[1,1,50] + 3 m[1,1,51] - 500 c[1,12,0.0] >= -500
 R365: - 3 m[1,0,48] + 3 m[1,0,49] + 3 m[1,0,50] - 3 m[1,0,51]
   + 3 m[1,1,48] + 3 m[1,1,49] - 3 m[1,1,50] - 3 m[1,1,51]
   - 500 c[1,12,0.0] >= -500
 R366: c[1,12,-3.0] = 0
 R367: c[1,12,-2.0] = 0
 R368: c[1,12,-1.41504] = 0
 R369: c[1,12,-1.0] = 0
 R370: c[1,13,0.0] + c[1,13,-3.0] + c[1,13,-2.0] + c[1,13,-1.41504]
   + c[1,13,-1.0] = 1
 R371: - m[1,1,52] - 500 c[1,13,0.0] >= -500
 R372: 3 m[1,0,52] - 4 m[1,0,53] - 4 m[1,0,54] + 3 m[1,0,55] + 3 m[1,1,52]
   - 4 m[1,1,53] + 3 m[1,1,54] + 3 m[1,1,55] - 500 c[1,13,0.0] >= -500
 R373: - 3 m[1,0,52] + 3 m[1,0,53] + 3 m[1,0,54] - 3 m[1,0,55]
   + 3 m[1,1,52] + 3 m[1,1,53] - 3 m[1,1,54] - 3 m[1,1,55]
   - 500 c[1,13,0.0] >= -500
 R374: c[1,13,-3.0] = 0
 R375: c[1,13,-2.0] = 0
 R376: c[1,13,-1.41504] = 0
 R377: c[1,13,-1.0] = 0
 R378: c[1,14,0.0] + c[1,14,-3.0] + c[1,14,-2.0] + c[1,14,-1.41504]
   + c[1,14,-1.0] = 1
 R379: - m[1,1,56] - 500 c[1,14,0.0] >= -500
 R380: 3 m[1,0,56] - 4 m[1,0,57] - 4 m[1,0,58] + 3 m[1,0,59] + 3 m[1,1,56]
   - 4 m[1,1,57] + 3 m[1,1,58] + 3 m[1,1,59] - 500 c[1,14,0.0] >= -500
 R381: - 3 m[1,0,56] + 3 m[1,0,57] + 3 m[1,0,58] - 3 m[1,0,59]
   + 3 m[1,1,56] + 3 m[1,1,57] - 3 m[1,1,58] - 3 m[1,1,59]
   - 500 c[1,14,0.0] >= -500
 R382: c[1,14,-3.0] = 0
 R383: c[1,14,-2.0] = 0
 R384: c[1,14,-1.41504] = 0
 R385: c[1,14,-1.0] = 0
 R386: c[1,15,0.0] + c[1,15,-3.0] + c[1,15,-2.0] + c[1,15,-1.41504]
   + c[1,15,-1.0] = 1
 R387: - m[1,1,60] - 500 c[1,15,0.0] >= -500
 R388: 3 m[1,0,60] - 4 m[1,0,61] - 4 m[1,0,62] + 3 m[1,0,63] + 3 m[1,1,60]
   - 4 m[1,1,61] + 3 m[1,1,62] + 3 m[1,1,63] - 500 c[1,15,0.0] >= -500
 R389: - 3 m[1,0,60] + 3 m[1,0,61] + 3 m[1,0,62] - 3 m[1,0,63]
   + 3 m[1,1,60] + 3 m[1,1,61] - 3 m[1,1,62] - 3 m[1,1,63]
   - 500 c[1,15,0.0] >= -500
 R390: c[1,15,-3.0] = 0
 R391: c[1,15,-2.0] = 0
 R392: c[1,15,-1.41504] = 0
 R393: c[1,15,-1.0] = 0
 R394: c[2,0,0.0] + c[2,0,-3.0] + c[2,0,-2.0] + c[2,0,-1.41504]
   + c[2,0,-1.0] = 1
 R395: - m[2,1,0] - 500 c[2,0,0.0] >= -500
 R396: 3 m[2,0,0] - 4 m[2,0,1] - 4 m[2,0,2] + 3 m[2,0,3] + 3 m[2,1,0]
   - 4 m[2,1,1] + 3 m[2,1,2] + 3 m[2,1,3] - 500 c[2,0,0.0] >= -500
 R397: - 3 m[2,0,0] + 3 m[2,0,1] + 3 m[2,0,2] - 3 m[2,0,3] + 3 m[2,1,0]
   + 3 m[2,1,1] - 3 m[2,1,2] - 3 m[2,1,3] - 500 c[2,0,0.0] >= -500
 R398: c[2,0,-3.0] = 0
 R399: c[2,0,-2.0] = 0
 R400: c[2,0,-1.41504] = 0
 R401: c[2,0,-1.0] = 0
 R402: c[2,1,0.0] + c[2,1,-3.0] + c[2,1,-2.0] + c[2,1,-1.41504]
   + c[2,1,-1.0] = 1
 R403: - m[2,1,4] - 500 c[2,1,0.0] >= -500
 R404: 3 m[2,0,4] - 4 m[2,0,5] - 4 m[2,0,6] + 3 m[2,0,7] + 3 m[2,1,4]
   - 4 m[2,1,5] + 3 m[2,1,6] + 3 m[2,1,7] - 500 c[2,1,0.0] >= -500
 R405: - 3 m[2,0,4] + 3 m[2,0,5] + 3 m[2,0,6] - 3 m[2,0,7] + 3 m[2,1,4]
   + 3 m[2,1,5] - 3 m[2,1,6] - 3 m[2,1,7] - 500 c[2,1,0.0] >= -500
 R406: c[2,1,-3.0] = 0
 R407: c[2,1,-2.0] = 0
 R408: c[2,1,-1.41504] = 0
 R409: c[2,1,-1.0] = 0
 R410: c[2,2,0.0] + c[2,2,-3.0] + c[2,2,-2.0] + c[2,2,-1.41504]
   + c[2,2,-1.0] = 1
 R411: - m[2,1,8] - 500 c[2,2,0.0] >= -500
 R412: 3 m[2,0,8] - 4 m[2,0,9] - 4 m[2,0,10] + 3 m[2,0,11] + 3 m[2,1,8]
   - 4 m[2,1,9] + 3 m[2,1,10] + 3 m[2,1,11] - 500 c[2,2,0.0] >= -500
 R413: - 3 m[2,0,8] + 3 m[2,0,9] + 3 m[2,0,10] - 3 m[2,0,11] + 3 m[2,1,8]
   + 3 m[2,1,9] - 3 m[2,1,10] - 3 m[2,1,11] - 500 c[2,2,0.0] >= -500
 R414: c[2,2,-3.0] = 0
 R415: c[2,2,-2.0] = 0
 R416: c[2,2,-1.41504] = 0
 R417: c[2,2,-1.0] = 0
 R418: c[2,3,0.0] + c[2,3,-3.0] + c[2,3,-2.0] + c[2,3,-1.41504]
   + c[2,3,-1.0] = 1
 R419: - m[2,1,12] - 500 c[2,3,0.0] >= -500
 R420: 3 m[2,0,12] - 4 m[2,0,13] - 4 m[2,0,14] + 3 m[2,0,15] + 3 m[2,1,12]
   - 4 m[2,1,13] + 3 m[2,1,14] + 3 m[2,1,15] - 500 c[2,3,0.0] >= -500
 R421: - 3 m[2,0,12] + 3 m[2,0,13] + 3 m[2,0,14] - 3 m[2,0,15]
   + 3 m[2,1,12] + 3 m[2,1,13] - 3 m[2,1,14] - 3 m[2,1,15] - 500 c[2,3,0.0]
   >= -500
 R422: c[2,3,-3.0] = 0
 R423: c[2,3,-2.0] = 0
 R424: c[2,3,-1.41504] = 0
 R425: c[2,3,-1.0] = 0
 R426: c[2,4,0.0] + c[2,4,-3.0] + c[2,4,-2.0] + c[2,4,-1.41504]
   + c[2,4,-1.0] = 1
 R427: - m[2,1,16] - 500 c[2,4,0.0] >= -500
 R428: 3 m[2,0,16] - 4 m[2,0,17] - 4 m[2,0,18] + 3 m[2,0,19] + 3 m[2,1,16]
   - 4 m[2,1,17] + 3 m[2,1,18] + 3 m[2,1,19] - 500 c[2,4,0.0] >= -500
 R429: - 3 m[2,0,16] + 3 m[2,0,17] + 3 m[2,0,18] - 3 m[2,0,19]
   + 3 m[2,1,16] + 3 m[2,1,17] - 3 m[2,1,18] - 3 m[2,1,19] - 500 c[2,4,0.0]
   >= -500
 R430: c[2,4,-3.0] = 0
 R431: c[2,4,-2.0] = 0
 R432: c[2,4,-1.41504] = 0
 R433: c[2,4,-1.0] = 0
 R434: c[2,5,0.0] + c[2,5,-3.0] + c[2,5,-2.0] + c[2,5,-1.41504]
   + c[2,5,-1.0] = 1
 R435: - m[2,1,20] - 500 c[2,5,0.0] >= -500
 R436: 3 m[2,0,20] - 4 m[2,0,21] - 4 m[2,0,22] + 3 m[2,0,23] + 3 m[2,1,20]
   - 4 m[2,1,21] + 3 m[2,1,22] + 3 m[2,1,23] - 500 c[2,5,0.0] >= -500
 R437: - 3 m[2,0,20] + 3 m[2,0,21] + 3 m[2,0,22] - 3 m[2,0,23]
   + 3 m[2,1,20] + 3 m[2,1,21] - 3 m[2,1,22] - 3 m[2,1,23] - 500 c[2,5,0.0]
   >= -500
 R438: c[2,5,-3.0] = 0
 R439: c[2,5,-2.0] = 0
 R440: c[2,5,-1.41504] = 0
 R441: c[2,5,-1.0] = 0
 R442: c[2,6,0.0] + c[2,6,-3.0] + c[2,6,-2.0] + c[2,6,-1.41504]
   + c[2,6,-1.0] = 1
 R443: - m[2,1,24] - 500 c[2,6,0.0] >= -500
 R444: 3 m[2,0,24] - 4 m[2,0,25] - 4 m[2,0,26] + 3 m[2,0,27] + 3 m[2,1,24]
   - 4 m[2,1,25] + 3 m[2,1,26] + 3 m[2,1,27] - 500 c[2,6,0.0] >= -500
 R445: - 3 m[2,0,24] + 3 m[2,0,25] + 3 m[2,0,26] - 3 m[2,0,27]
   + 3 m[2,1,24] + 3 m[2,1,25] - 3 m[2,1,26] - 3 m[2,1,27] - 500 c[2,6,0.0]
   >= -500
 R446: c[2,6,-3.0] = 0
 R447: c[2,6,-2.0] = 0
 R448: c[2,6,-1.41504] = 0
 R449: c[2,6,-1.0] = 0
 R450: c[2,7,0.0] + c[2,7,-3.0] + c[2,7,-2.0] + c[2,7,-1.41504]
   + c[2,7,-1.0] = 1
 R451: - m[2,1,28] - 500 c[2,7,0.0] >= -500
 R452: 3 m[2,0,28] - 4 m[2,0,29] - 4 m[2,0,30] + 3 m[2,0,31] + 3 m[2,1,28]
   - 4 m[2,1,29] + 3 m[2,1,30] + 3 m[2,1,31] - 500 c[2,7,0.0] >= -500
 R453: - 3 m[2,0,28] + 3 m[2,0,29] + 3 m[2,0,30] - 3 m[2,0,31]
   + 3 m[2,1,28] + 3 m[2,1,29] - 3 m[2,1,30] - 3 m[2,1,31] - 500 c[2,7,0.0]
   >= -500
 R454: c[2,7,-3.0] = 0
 R455: c[2,7,-2.0] = 0
 R456: c[2,7,-1.41504] = 0
 R457: c[2,7,-1.0] = 0
 R458: c[2,8,0.0] + c[2,8,-3.0] + c[2,8,-2.0] + c[2,8,-1.41504]
   + c[2,8,-1.0] = 1
 R459: - m[2,1,32] - 500 c[2,8,0.0] >= -500
 R460: 3 m[2,0,32] - 4 m[2,0,33] - 4 m[2,0,34] + 3 m[2,0,35] + 3 m[2,1,32]
   - 4 m[2,1,33] + 3 m[2,1,34] + 3 m[2,1,35] - 500 c[2,8,0.0] >= -500
 R461: - 3 m[2,0,32] + 3 m[2,0,33] + 3 m[2,0,34] - 3 m[2,0,35]
   + 3 m[2,1,32] + 3 m[2,1,33] - 3 m[2,1,34] - 3 m[2,1,35] - 500 c[2,8,0.0]
   >= -500
 R462: c[2,8,-3.0] = 0
 R463: c[2,8,-2.0] = 0
 R464: c[2,8,-1.41504] = 0
 R465: c[2,8,-1.0] = 0
 R466: c[2,9,0.0] + c[2,9,-3.0] + c[2,9,-2.0] + c[2,9,-1.41504]
   + c[2,9,-1.0] = 1
 R467: - m[2,1,36] - 500 c[2,9,0.0] >= -500
 R468: 3 m[2,0,36] - 4 m[2,0,37] - 4 m[2,0,38] + 3 m[2,0,39] + 3 m[2,1,36]
   - 4 m[2,1,37] + 3 m[2,1,38] + 3 m[2,1,39] - 500 c[2,9,0.0] >= -500
 R469: - 3 m[2,0,36] + 3 m[2,0,37] + 3 m[2,0,38] - 3 m[2,0,39]
   + 3 m[2,1,36] + 3 m[2,1,37] - 3 m[2,1,38] - 3 m[2,1,39] - 500 c[2,9,0.0]
   >= -500
 R470: c[2,9,-3.0] = 0
 R471: c[2,9,-2.0] = 0
 R472: c[2,9,-1.41504] = 0
 R473: c[2,9,-1.0] = 0
 R474: c[2,10,0.0] + c[2,10,-3.0] + c[2,10,-2.0] + c[2,10,-1.41504]
   + c[2,10,-1.0] = 1
 R475: - m[2,1,40] - 500 c[2,10,0.0] >= -500
 R476: 3 m[2,0,40] - 4 m[2,0,41] - 4 m[2,0,42] + 3 m[2,0,43] + 3 m[2,1,40]
   - 4 m[2,1,41] + 3 m[2,1,42] + 3 m[2,1,43] - 500 c[2,10,0.0] >= -500
 R477: - 3 m[2,0,40] + 3 m[2,0,41] + 3 m[2,0,42] - 3 m[2,0,43]
   + 3 m[2,1,40] + 3 m[2,1,41] - 3 m[2,1,42] - 3 m[2,1,43]
   - 500 c[2,10,0.0] >= -500
 R478: c[2,10,-3.0] = 0
 R479: c[2,10,-2.0] = 0
 R480: c[2,10,-1.41504] = 0
 R481: c[2,10,-1.0] = 0
 R482: c[2,11,0.0] + c[2,11,-3.0] + c[2,11,-2.0] + c[2,11,-1.41504]
   + c[2,11,-1.0] = 1
 R483: - m[2,1,44] - 500 c[2,11,0.0] >= -500
 R484: 3 m[2,0,44] - 4 m[2,0,45] - 4 m[2,0,46] + 3 m[2,0,47] + 3 m[2,1,44]
   - 4 m[2,1,45] + 3 m[2,1,46] + 3 m[2,1,47] - 500 c[2,11,0.0] >= -500
 R485: - 3 m[2,0,44] + 3 m[2,0,45] + 3 m[2,0,46] - 3 m[2,0,47]
   + 3 m[2,1,44] + 3 m[2,1,45] - 3 m[2,1,46] - 3 m[2,1,47]
   - 500 c[2,11,0.0] >= -500
 R486: c[2,11,-3.0] = 0
 R487: c[2,11,-2.0] = 0
 R488: c[2,11,-1.41504] = 0
 R489: c[2,11,-1.0] = 0
 R490: c[2,12,0.0] + c[2,12,-3.0] + c[2,12,-2.0] + c[2,12,-1.41504]
   + c[2,12,-1.0] = 1
 R491: - m[2,1,48] - 500 c[2,12,0.0] >= -500
 R492: 3 m[2,0,48] - 4 m[2,0,49] - 4 m[2,0,50] + 3 m[2,0,51] + 3 m[2,1,48]
   - 4 m[2,1,49] + 3 m[2,1,50] + 3 m[2,1,51] - 500 c[2,12,0.0] >= -500
 R493: - 3 m[2,0,48] + 3 m[2,0,49] + 3 m[2,0,50] - 3 m[2,0,51]
   + 3 m[2,1,48] + 3 m[2,1,49] - 3 m[2,1,50] - 3 m[2,1,51]
   - 500 c[2,12,0.0] >= -500
 R494: c[2,12,-3.0] = 0
 R495: c[2,12,-2.0] = 0
 R496: c[2,12,-1.41504] = 0
 R497: c[2,12,-1.0] = 0
 R498: c[2,13,0.0] + c[2,13,-3.0] + c[2,13,-2.0] + c[2,13,-1.41504]
   + c[2,13,-1.0] = 1
 R499: - m[2,1,52] - 500 c[2,13,0.0] >= -500
 R500: 3 m[2,0,52] - 4 m[2,0,53] - 4 m[2,0,54] + 3 m[2,0,55] + 3 m[2,1,52]
   - 4 m[2,1,53] + 3 m[2,1,54] + 3 m[2,1,55] - 500 c[2,13,0.0] >= -500
 R501: - 3 m[2,0,52] + 3 m[2,0,53] + 3 m[2,0,54] - 3 m[2,0,55]
   + 3 m[2,1,52] + 3 m[2,1,53] - 3 m[2,1,54] - 3 m[2,1,55]
   - 500 c[2,13,0.0] >= -500
 R502: c[2,13,-3.0] = 0
 R503: c[2,13,-2.0] = 0
 R504: c[2,13,-1.41504] = 0
 R505: c[2,13,-1.0] = 0
 R506: c[2,14,0.0] + c[2,14,-3.0] + c[2,14,-2.0] + c[2,14,-1.41504]
   + c[2,14,-1.0] = 1
 R507: - m[2,1,56] - 500 c[2,14,0.0] >= -500
 R508: 3 m[2,0,56] - 4 m[2,0,57] - 4 m[2,0,58] + 3 m[2,0,59] + 3 m[2,1,56]
   - 4 m[2,1,57] + 3 m[2,1,58] + 3 m[2,1,59] - 500 c[2,14,0.0] >= -500
 R509: - 3 m[2,0,56] + 3 m[2,0,57] + 3 m[2,0,58] - 3 m[2,0,59]
   + 3 m[2,1,56] + 3 m[2,1,57] - 3 m[2,1,58] - 3 m[2,1,59]
   - 500 c[2,14,0.0] >= -500
 R510: c[2,14,-3.0] = 0
 R511: c[2,14,-2.0] = 0
 R512: c[2,14,-1.41504] = 0
 R513: c[2,14,-1.0] = 0
 R514: c[2,15,0.0] + c[2,15,-3.0] + c[2,15,-2.0] + c[2,15,-1.41504]
   + c[2,15,-1.0] = 1
 R515: - m[2,1,60] - 500 c[2,15,0.0] >= -500
 R516: 3 m[2,0,60] - 4 m[2,0,61] - 4 m[2,0,62] + 3 m[2,0,63] + 3 m[2,1,60]
   - 4 m[2,1,61] + 3 m[2,1,62] + 3 m[2,1,63] - 500 c[2,15,0.0] >= -500
 R517: - 3 m[2,0,60] + 3 m[2,0,61] + 3 m[2,0,62] - 3 m[2,0,63]
   + 3 m[2,1,60] + 3 m[2,1,61] - 3 m[2,1,62] - 3 m[2,1,63]
   - 500 c[2,15,0.0] >= -500
 R518: c[2,15,-3.0] = 0
 R519: c[2,15,-2.0] = 0
 R520: c[2,15,-1.41504] = 0
 R521: c[2,15,-1.0] = 0
 R522: c[3,0,0.0] + c[3,0,-3.0] + c[3,0,-2.0] + c[3,0,-1.41504]
   + c[3,0,-1.0] = 1
 R523: - m[3,1,0] - 500 c[3,0,0.0] >= -500
 R524: 3 m[3,0,0] - 4 m[3,0,1] - 4 m[3,0,2] + 3 m[3,0,3] + 3 m[3,1,0]
   - 4 m[3,1,1] + 3 m[3,1,2] + 3 m[3,1,3] - 500 c[3,0,0.0] >= -500
 R525: - 3 m[3,0,0] + 3 m[3,0,1] + 3 m[3,0,2] - 3 m[3,0,3] + 3 m[3,1,0]
   + 3 m[3,1,1] - 3 m[3,1,2] - 3 m[3,1,3] - 500 c[3,0,0.0] >= -500
 R526: c[3,0,-3.0] = 0
 R527: c[3,0,-2.0] = 0
 R528: c[3,0,-1.41504] = 0
 R529: c[3,0,-1.0] = 0
 R530: c[3,1,0.0] + c[3,1,-3.0] + c[3,1,-2.0] + c[3,1,-1.41504]
   + c[3,1,-1.0] = 1
 R531: - m[3,1,4] - 500 c[3,1,0.0] >= -500
 R532: 3 m[3,0,4] - 4 m[3,0,5] - 4 m[3,0,6] + 3 m[3,0,7] + 3 m[3,1,4]
   - 4 m[3,1,5] + 3 m[3,1,6] + 3 m[3,1,7] - 500 c[3,1,0.0] >= -500
 R533: - 3 m[3,0,4] + 3 m[3,0,5] + 3 m[3,0,6] - 3 m[3,0,7] + 3 m[3,1,4]
   + 3 m[3,1,5] - 3 m[3,1,6] - 3 m[3,1,7] - 500 c[3,1,0.0] >= -500
 R534: c[3,1,-3.0] = 0
 R535: c[3,1,-2.0] = 0
 R536: c[3,1,-1.41504] = 0
 R537: c[3,1,-1.0] = 0
 R538: c[3,2,0.0] + c[3,2,-3.0] + c[3,2,-2.0] + c[3,2,-1.41504]
   + c[3,2,-1.0] = 1
 R539: - m[3,1,8] - 500 c[3,2,0.0] >= -500
 R540: 3 m[3,0,8] - 4 m[3,0,9] - 4 m[3,0,10] + 3 m[3,0,11] + 3 m[3,1,8]
   - 4 m[3,1,9] + 3 m[3,1,10] + 3 m[3,1,11] - 500 c[3,2,0.0] >= -500
 R541: - 3 m[3,0,8] + 3 m[3,0,9] + 3 m[3,0,10] - 3 m[3,0,11] + 3 m[3,1,8]
   + 3 m[3,1,9] - 3 m[3,1,10] - 3 m[3,1,11] - 500 c[3,2,0.0] >= -500
 R542: c[3,2,-3.0] = 0
 R543: c[3,2,-2.0] = 0
 R544: c[3,2,-1.41504] = 0
 R545: c[3,2,-1.0] = 0
 R546: c[3,3,0.0] + c[3,3,-3.0] + c[3,3,-2.0] + c[3,3,-1.41504]
   + c[3,3,-1.0] = 1
 R547: - m[3,1,12] - 500 c[3,3,0.0] >= -500
 R548: 3 m[3,0,12] - 4 m[3,0,13] - 4 m[3,0,14] + 3 m[3,0,15] + 3 m[3,1,12]
   - 4 m[3,1,13] + 3 m[3,1,14] + 3 m[3,1,15] - 500 c[3,3,0.0] >= -500
 R549: - 3 m[3,0,12] + 3 m[3,0,13] + 3 m[3,0,14] - 3 m[3,0,15]
   + 3 m[3,1,12] + 3 m[3,1,13] - 3 m[3,1,14] - 3 m[3,1,15] - 500 c[3,3,0.0]
   >= -500
 R550: c[3,3,-3.0] = 0
 R551: c[3,3,-2.0] = 0
 R552: c[3,3,-1.41504] = 0
 R553: c[3,3,-1.0] = 0
 R554: c[3,4,0.0] + c[3,4,-3.0] + c[3,4,-2.0] + c[3,4,-1.41504]
   + c[3,4,-1.0] = 1
 R555: - m[3,1,16] - 500 c[3,4,0.0] >= -500
 R556: 3 m[3,0,16] - 4 m[3,0,17] - 4 m[3,0,18] + 3 m[3,0,19] + 3 m[3,1,16]
   - 4 m[3,1,17] + 3 m[3,1,18] + 3 m[3,1,19] - 500 c[3,4,0.0] >= -500
 R557: - 3 m[3,0,16] + 3 m[3,0,17] + 3 m[3,0,18] - 3 m[3,0,19]
   + 3 m[3,1,16] + 3 m[3,1,17] - 3 m[3,1,18] - 3 m[3,1,19] - 500 c[3,4,0.0]
   >= -500
 R558: c[3,4,-3.0] = 0
 R559: c[3,4,-2.0] = 0
 R560: c[3,4,-1.41504] = 0
 R561: c[3,4,-1.0] = 0
 R562: c[3,5,0.0] + c[3,5,-3.0] + c[3,5,-2.0] + c[3,5,-1.41504]
   + c[3,5,-1.0] = 1
 R563: - m[3,1,20] - 500 c[3,5,0.0] >= -500
 R564: 3 m[3,0,20] - 4 m[3,0,21] - 4 m[3,0,22] + 3 m[3,0,23] + 3 m[3,1,20]
   - 4 m[3,1,21] + 3 m[3,1,22] + 3 m[3,1,23] - 500 c[3,5,0.0] >= -500
 R565: - 3 m[3,0,20] + 3 m[3,0,21] + 3 m[3,0,22] - 3 m[3,0,23]
   + 3 m[3,1,20] + 3 m[3,1,21] - 3 m[3,1,22] - 3 m[3,1,23] - 500 c[3,5,0.0]
   >= -500
 R566: c[3,5,-3.0] = 0
 R567: c[3,5,-2.0] = 0
 R568: c[3,5,-1.41504] = 0
 R569: c[3,5,-1.0] = 0
 R570: c[3,6,0.0] + c[3,6,-3.0] + c[3,6,-2.0] + c[3,6,-1.41504]
   + c[3,6,-1.0] = 1
 R571: - m[3,1,24] - 500 c[3,6,0.0] >= -500
 R572: 3 m[3,0,24] - 4 m[3,0,25] - 4 m[3,0,26] + 3 m[3,0,27] + 3 m[3,1,24]
   - 4 m[3,1,25] + 3 m[3,1,26] + 3 m[3,1,27] - 500 c[3,6,0.0] >= -500
 R573: - 3 m[3,0,24] + 3 m[3,0,25] + 3 m[3,0,26] - 3 m[3,0,27]
   + 3 m[3,1,24] + 3 m[3,1,25] - 3 m[3,1,26] - 3 m[3,1,27] - 500 c[3,6,0.0]
   >= -500
 R574: c[3,6,-3.0] = 0
 R575: c[3,6,-2.0] = 0
 R576: c[3,6,-1.41504] = 0
 R577: c[3,6,-1.0] = 0
 R578: c[3,7,0.0] + c[3,7,-3.0] + c[3,7,-2.0] + c[3,7,-1.41504]
   + c[3,7,-1.0] = 1
 R579: - m[3,1,28] - 500 c[3,7,0.0] >= -500
 R580: 3 m[3,0,28] - 4 m[3,0,29] - 4 m[3,0,30] + 3 m[3,0,31] + 3 m[3,1,28]
   - 4 m[3,1,29] + 3 m[3,1,30] + 3 m[3,1,31] - 500 c[3,7,0.0] >= -500
 R581: - 3 m[3,0,28] + 3 m[3,0,29] + 3 m[3,0,30] - 3 m[3,0,31]
   + 3 m[3,1,28] + 3 m[3,1,29] - 3 m[3,1,30] - 3 m[3,1,31] - 500 c[3,7,0.0]
   >= -500
 R582: c[3,7,-3.0] = 0
 R583: c[3,7,-2.0] = 0
 R584: c[3,7,-1.41504] = 0
 R585: c[3,7,-1.0] = 0
 R586: c[3,8,0.0] + c[3,8,-3.0] + c[3,8,-2.0] + c[3,8,-1.41504]
   + c[3,8,-1.0] = 1
 R587: - m[3,1,32] - 500 c[3,8,0.0] >= -500
 R588: 3 m[3,0,32] - 4 m[3,0,33] - 4 m[3,0,34] + 3 m[3,0,35] + 3 m[3,1,32]
   - 4 m[3,1,33] + 3 m[3,1,34] + 3 m[3,1,35] - 500 c[3,8,0.0] >= -500
 R589: - 3 m[3,0,32] + 3 m[3,0,33] + 3 m[3,0,34] - 3 m[3,0,35]
   + 3 m[3,1,32] + 3 m[3,1,33] - 3 m[3,1,34] - 3 m[3,1,35] - 500 c[3,8,0.0]
   >= -500
 R590: c[3,8,-3.0] = 0
 R591: c[3,8,-2.0] = 0
 R592: c[3,8,-1.41504] = 0
 R593: c[3,8,-1.0] = 0
 R594: c[3,9,0.0] + c[3,9,-3.0] + c[3,9,-2.0] + c[3,9,-1.41504]
   + c[3,9,-1.0] = 1
 R595: - m[3,1,36] - 500 c[3,9,0.0] >= -500
 R596: 3 m[3,0,36] - 4 m[3,0,37] - 4 m[3,0,38] + 3 m[3,0,39] + 3 m[3,1,36]
   - 4 m[3,1,37] + 3 m[3,1,38] + 3 m[3,1,39] - 500 c[3,9,0.0] >= -500
 R597: - 3 m[3,0,36] + 3 m[3,0,37] + 3 m[3,0,38] - 3 m[3,0,39]
   + 3 m[3,1,36] + 3 m[3,1,37] - 3 m[3,1,38] - 3 m[3,1,39] - 500 c[3,9,0.0]
   >= -500
 R598: c[3,9,-3.0] = 0
 R599: c[3,9,-2.0] = 0
 R600: c[3,9,-1.41504] = 0
 R601: c[3,9,-1.0] = 0
 R602: c[3,10,0.0] + c[3,10,-3.0] + c[3,10,-2.0] + c[3,10,-1.41504]
   + c[3,10,-1.0] = 1
 R603: - m[3,1,40] - 500 c[3,10,0.0] >= -500
 R604: 3 m[3,0,40] - 4 m[3,0,41] - 4 m[3,0,42] + 3 m[3,0,43] + 3 m[3,1,40]
   - 4 m[3,1,41] + 3 m[3,1,42] + 3 m[3,1,43] - 500 c[3,10,0.0] >= -500
 R605: - 3 m[3,0,40] + 3 m[3,0,41] + 3 m[3,0,42] - 3 m[3,0,43]
   + 3 m[3,1,40] + 3 m[3,1,41] - 3 m[3,1,42] - 3 m[3,1,43]
   - 500 c[3,10,0.0] >= -500
 R606: c[3,10,-3.0] = 0
 R607: c[3,10,-2.0] = 0
 R608: c[3,10,-1.41504] = 0
 R609: c[3,10,-1.0] = 0
 R610: c[3,11,0.0] + c[3,11,-3.0] + c[3,11,-2.0] + c[3,11,-1.41504]
   + c[3,11,-1.0] = 1
 R611: - m[3,1,44] - 500 c[3,11,0.0] >= -500
 R612: 3 m[3,0,44] - 4 m[3,0,45] - 4 m[3,0,46] + 3 m[3,0,47] + 3 m[3,1,44]
   - 4 m[3,1,45] + 3 m[3,1,46] + 3 m[3,1,47] - 500 c[3,11,0.0] >= -500
 R613: - 3 m[3,0,44] + 3 m[3,0,45] + 3 m[3,0,46] - 3 m[3,0,47]
   + 3 m[3,1,44] + 3 m[3,1,45] - 3 m[3,1,46] - 3 m[3,1,47]
   - 500 c[3,11,0.0] >= -500
 R614: c[3,11,-3.0] = 0
 R615: c[3,11,-2.0] = 0
 R616: c[3,11,-1.41504] = 0
 R617: c[3,11,-1.0] = 0
 R618: c[3,12,0.0] + c[3,12,-3.0] + c[3,12,-2.0] + c[3,12,-1.41504]
   + c[3,12,-1.0] = 1
 R619: - m[3,1,48] - 500 c[3,12,0.0] >= -500
 R620: 3 m[3,0,48] - 4 m[3,0,49] - 4 m[3,0,50] + 3 m[3,0,51] + 3 m[3,1,48]
   - 4 m[3,1,49] + 3 m[3,1,50] + 3 m[3,1,51] - 500 c[3,12,0.0] >= -500
 R621: - 3 m[3,0,48] + 3 m[3,0,49] + 3 m[3,0,50] - 3 m[3,0,51]
   + 3 m[3,1,48] + 3 m[3,1,49] - 3 m[3,1,50] - 3 m[3,1,51]
   - 500 c[3,12,0.0] >= -500
 R622: c[3,12,-3.0] = 0
 R623: c[3,12,-2.0] = 0
 R624: c[3,12,-1.41504] = 0
 R625: c[3,12,-1.0] = 0
 R626: c[3,13,0.0] + c[3,13,-3.0] + c[3,13,-2.0] + c[3,13,-1.41504]
   + c[3,13,-1.0] = 1
 R627: - m[3,1,52] - 500 c[3,13,0.0] >= -500
 R628: 3 m[3,0,52] - 4 m[3,0,53] - 4 m[3,0,54] + 3 m[3,0,55] + 3 m[3,1,52]
   - 4 m[3,1,53] + 3 m[3,1,54] + 3 m[3,1,55] - 500 c[3,13,0.0] >= -500
 R629: - 3 m[3,0,52] + 3 m[3,0,53] + 3 m[3,0,54] - 3 m[3,0,55]
   + 3 m[3,1,52] + 3 m[3,1,53] - 3 m[3,1,54] - 3 m[3,1,55]
   - 500 c[3,13,0.0] >= -500
 R630: c[3,13,-3.0] = 0
 R631: c[3,13,-2.0] = 0
 R632: c[3,13,-1.41504] = 0
 R633: c[3,13,-1.0] = 0
 R634: c[3,14,0.0] + c[3,14,-3.0] + c[3,14,-2.0] + c[3,14,-1.41504]
   + c[3,14,-1.0] = 1
 R635: - m[3,1,56] - 500 c[3,14,0.0] >= -500
 R636: 3 m[3,0,56] - 4 m[3,0,57] - 4 m[3,0,58] + 3 m[3,0,59] + 3 m[3,1,56]
   - 4 m[3,1,57] + 3 m[3,1,58] + 3 m[3,1,59] - 500 c[3,14,0.0] >= -500
 R637: - 3 m[3,0,56] + 3 m[3,0,57] + 3 m[3,0,58] - 3 m[3,0,59]
   + 3 m[3,1,56] + 3 m[3,1,57] - 3 m[3,1,58] - 3 m[3,1,59]
   - 500 c[3,14,0.0] >= -500
 R638: c[3,14,-3.0] = 0
 R639: c[3,14,-2.0] = 0
 R640: c[3,14,-1.41504] = 0
 R641: c[3,14,-1.0] = 0
 R642: c[3,15,0.0] + c[3,15,-3.0] + c[3,15,-2.0] + c[3,15,-1.41504]
   + c[3,15,-1.0] = 1
 R643: - m[3,1,60] - 500 c[3,15,0.0] >= -500
 R644: 3 m[3,0,60] - 4 m[3,0,61] - 4 m[3,0,62] + 3 m[3,0,63] + 3 m[3,1,60]
   - 4 m[3,1,61] + 3 m[3,1,62] + 3 m[3,1,63] - 500 c[3,15,0.0] >= -500
 R645: - 3 m[3,0,60] + 3 m[3,0,61] + 3 m[3,0,62] - 3 m[3,0,63]
   + 3 m[3,1,60] + 3 m[3,1,61] - 3 m[3,1,62] - 3 m[3,1,63]
   - 500 c[3,15,0.0] >= -500
 R646: c[3,15,-3.0] = 0
 R647: c[3,15,-2.0] = 0
 R648: c[3,15,-1.41504] = 0
 R649: c[3,15,-1.0] = 0
 R650: c[4,0,0.0] + c[4,0,-3.0] + c[4,0,-2.0] + c[4,0,-1.41504]
   + c[4,0,-1.0] = 1
 R651: - m[4,1,0] - 500 c[4,0,0.0] >= -500
 R652: 3 m[4,0,0] - 4 m[4,0,1] - 4 m[4,0,2] + 3 m[4,0,3] + 3 m[4,1,0]
   - 4 m[4,1,1] + 3 m[4,1,2] + 3 m[4,1,3] - 500 c[4,0,0.0] >= -500
 R653: - 3 m[4,0,0] + 3 m[4,0,1] + 3 m[4,0,2] - 3 m[4,0,3] + 3 m[4,1,0]
   + 3 m[4,1,1] - 3 m[4,1,2] - 3 m[4,1,3] - 500 c[4,0,0.0] >= -500
 R654: c[4,0,-3.0] = 0
 R655: c[4,0,-2.0] = 0
 R656: c[4,0,-1.41504] = 0
 R657: c[4,0,-1.0] = 0
 R658: c[4,1,0.0] + c[4,1,-3.0] + c[4,1,-2.0] + c[4,1,-1.41504]
   + c[4,1,-1.0] = 1
 R659: - m[4,1,4] - 500 c[4,1,0.0] >= -500
 R660: 3 m[4,0,4] - 4 m[4,0,5] - 4 m[4,0,6] + 3 m[4,0,7] + 3 m[4,1,4]
   - 4 m[4,1,5] + 3 m[4,1,6] + 3 m[4,1,7] - 500 c[4,1,0.0] >= -500
 R661: - 3 m[4,0,4] + 3 m[4,0,5] + 3 m[4,0,6] - 3 m[4,0,7] + 3 m[4,1,4]
   + 3 m[4,1,5] - 3 m[4,1,6] - 3 m[4,1,7] - 500 c[4,1,0.0] >= -500
 R662: c[4,1,-3.0] = 0
 R663: c[4,1,-2.0] = 0
 R664: c[4,1,-1.41504] = 0
 R665: c[4,1,-1.0] = 0
 R666: c[4,2,0.0] + c[4,2,-3.0] + c[4,2,-2.0] + c[4,2,-1.41504]
   + c[4,2,-1.0] = 1
 R667: - m[4,1,8] - 500 c[4,2,0.0] >= -500
 R668: 3 m[4,0,8] - 4 m[4,0,9] - 4 m[4,0,10] + 3 m[4,0,11] + 3 m[4,1,8]
   - 4 m[4,1,9] + 3 m[4,1,10] + 3 m[4,1,11] - 500 c[4,2,0.0] >= -500
 R669: - 3 m[4,0,8] + 3 m[4,0,9] + 3 m[4,0,10] - 3 m[4,0,11] + 3 m[4,1,8]
   + 3 m[4,1,9] - 3 m[4,1,10] - 3 m[4,1,11] - 500 c[4,2,0.0] >= -500
 R670: c[4,2,-3.0] = 0
 R671: c[4,2,-2.0] = 0
 R672: c[4,2,-1.41504] = 0
 R673: c[4,2,-1.0] = 0
 R674: c[4,3,0.0] + c[4,3,-3.0] + c[4,3,-2.0] + c[4,3,-1.41504]
   + c[4,3,-1.0] = 1
 R675: - m[4,1,12] - 500 c[4,3,0.0] >= -500
 R676: 3 m[4,0,12] - 4 m[4,0,13] - 4 m[4,0,14] + 3 m[4,0,15] + 3 m[4,1,12]
   - 4 m[4,1,13] + 3 m[4,1,14] + 3 m[4,1,15] - 500 c[4,3,0.0] >= -500
 R677: - 3 m[4,0,12] + 3 m[4,0,13] + 3 m[4,0,14] - 3 m[4,0,15]
   + 3 m[4,1,12] + 3 m[4,1,13] - 3 m[4,1,14] - 3 m[4,1,15] - 500 c[4,3,0.0]
   >= -500
 R678: c[4,3,-3.0] = 0
 R679: c[4,3,-2.0] = 0
 R680: c[4,3,-1.41504] = 0
 R681: c[4,3,-1.0] = 0
 R682: c[4,4,0.0] + c[4,4,-3.0] + c[4,4,-2.0] + c[4,4,-1.41504]
   + c[4,4,-1.0] = 1
 R683: - m[4,1,16] - 500 c[4,4,0.0] >= -500
 R684: 3 m[4,0,16] - 4 m[4,0,17] - 4 m[4,0,18] + 3 m[4,0,19] + 3 m[4,1,16]
   - 4 m[4,1,17] + 3 m[4,1,18] + 3 m[4,1,19] - 500 c[4,4,0.0] >= -500
 R685: - 3 m[4,0,16] + 3 m[4,0,17] + 3 m[4,0,18] - 3 m[4,0,19]
   + 3 m[4,1,16] + 3 m[4,1,17] - 3 m[4,1,18] - 3 m[4,1,19] - 500 c[4,4,0.0]
   >= -500
 R686: c[4,4,-3.0] = 0
 R687: c[4,4,-2.0] = 0
 R688: c[4,4,-1.41504] = 0
 R689: c[4,4,-1.0] = 0
 R690: c[4,5,0.0] + c[4,5,-3.0] + c[4,5,-2.0] + c[4,5,-1.41504]
   + c[4,5,-1.0] = 1
 R691: - m[4,1,20] - 500 c[4,5,0.0] >= -500
 R692: 3 m[4,0,20] - 4 m[4,0,21] - 4 m[4,0,22] + 3 m[4,0,23] + 3 m[4,1,20]
   - 4 m[4,1,21] + 3 m[4,1,22] + 3 m[4,1,23] - 500 c[4,5,0.0] >= -500
 R693: - 3 m[4,0,20] + 3 m[4,0,21] + 3 m[4,0,22] - 3 m[4,0,23]
   + 3 m[4,1,20] + 3 m[4,1,21] - 3 m[4,1,22] - 3 m[4,1,23] - 500 c[4,5,0.0]
   >= -500
 R694: c[4,5,-3.0] = 0
 R695: c[4,5,-2.0] = 0
 R696: c[4,5,-1.41504] = 0
 R697: c[4,5,-1.0] = 0
 R698: c[4,6,0.0] + c[4,6,-3.0] + c[4,6,-2.0] + c[4,6,-1.41504]
   + c[4,6,-1.0] = 1
 R699: - m[4,1,24] - 500 c[4,6,0.0] >= -500
 R700: 3 m[4,0,24] - 4 m[4,0,25] - 4 m[4,0,26] + 3 m[4,0,27] + 3 m[4,1,24]
   - 4 m[4,1,25] + 3 m[4,1,26] + 3 m[4,1,27] - 500 c[4,6,0.0] >= -500
 R701: - 3 m[4,0,24] + 3 m[4,0,25] + 3 m[4,0,26] - 3 m[4,0,27]
   + 3 m[4,1,24] + 3 m[4,1,25] - 3 m[4,1,26] - 3 m[4,1,27] - 500 c[4,6,0.0]
   >= -500
 R702: c[4,6,-3.0] = 0
 R703: c[4,6,-2.0] = 0
 R704: c[4,6,-1.41504] = 0
 R705: c[4,6,-1.0] = 0
 R706: c[4,7,0.0] + c[4,7,-3.0] + c[4,7,-2.0] + c[4,7,-1.41504]
   + c[4,7,-1.0] = 1
 R707: - m[4,1,28] - 500 c[4,7,0.0] >= -500
 R708: 3 m[4,0,28] - 4 m[4,0,29] - 4 m[4,0,30] + 3 m[4,0,31] + 3 m[4,1,28]
   - 4 m[4,1,29] + 3 m[4,1,30] + 3 m[4,1,31] - 500 c[4,7,0.0] >= -500
 R709: - 3 m[4,0,28] + 3 m[4,0,29] + 3 m[4,0,30] - 3 m[4,0,31]
   + 3 m[4,1,28] + 3 m[4,1,29] - 3 m[4,1,30] - 3 m[4,1,31] - 500 c[4,7,0.0]
   >= -500
 R710: c[4,7,-3.0] = 0
 R711: c[4,7,-2.0] = 0
 R712: c[4,7,-1.41504] = 0
 R713: c[4,7,-1.0] = 0
 R714: c[4,8,0.0] + c[4,8,-3.0] + c[4,8,-2.0] + c[4,8,-1.41504]
   + c[4,8,-1.0] = 1
 R715: - m[4,1,32] - 500 c[4,8,0.0] >= -500
 R716: 3 m[4,0,32] - 4 m[4,0,33] - 4 m[4,0,34] + 3 m[4,0,35] + 3 m[4,1,32]
   - 4 m[4,1,33] + 3 m[4,1,34] + 3 m[4,1,35] - 500 c[4,8,0.0] >= -500
 R717: - 3 m[4,0,32] + 3 m[4,0,33] + 3 m[4,0,34] - 3 m[4,0,35]
   + 3 m[4,1,32] + 3 m[4,1,33] - 3 m[4,1,34] - 3 m[4,1,35] - 500 c[4,8,0.0]
   >= -500
 R718: c[4,8,-3.0] = 0
 R719: c[4,8,-2.0] = 0
 R720: c[4,8,-1.41504] = 0
 R721: c[4,8,-1.0] = 0
 R722: c[4,9,0.0] + c[4,9,-3.0] + c[4,9,-2.0] + c[4,9,-1.41504]
   + c[4,9,-1.0] = 1
 R723: - m[4,1,36] - 500 c[4,9,0.0] >= -500
 R724: 3 m[4,0,36] - 4 m[4,0,37] - 4 m[4,0,38] + 3 m[4,0,39] + 3 m[4,1,36]
   - 4 m[4,1,37] + 3 m[4,1,38] + 3 m[4,1,39] - 500 c[4,9,0.0] >= -500
 R725: - 3 m[4,0,36] + 3 m[4,0,37] + 3 m[4,0,38] - 3 m[4,0,39]
   + 3 m[4,1,36] + 3 m[4,1,37] - 3 m[4,1,38] - 3 m[4,1,39] - 500 c[4,9,0.0]
   >= -500
 R726: c[4,9,-3.0] = 0
 R727: c[4,9,-2.0] = 0
 R728: c[4,9,-1.41504] = 0
 R729: c[4,9,-1.0] = 0
 R730: c[4,10,0.0] + c[4,10,-3.0] + c[4,10,-2.0] + c[4,10,-1.41504]
   + c[4,10,-1.0] = 1
 R731: - m[4,1,40] - 500 c[4,10,0.0] >= -500
 R732: 3 m[4,0,40] - 4 m[4,0,41] - 4 m[4,0,42] + 3 m[4,0,43] + 3 m[4,1,40]
   - 4 m[4,1,41] + 3 m[4,1,42] + 3 m[4,1,43] - 500 c[4,10,0.0] >= -500
 R733: - 3 m[4,0,40] + 3 m[4,0,41] + 3 m[4,0,42] - 3 m[4,0,43]
   + 3 m[4,1,40] + 3 m[4,1,41] - 3 m[4,1,42] - 3 m[4,1,43]
   - 500 c[4,10,0.0] >= -500
 R734: c[4,10,-3.0] = 0
 R735: c[4,10,-2.0] = 0
 R736: c[4,10,-1.41504] = 0
 R737: c[4,10,-1.0] = 0
 R738: c[4,11,0.0] + c[4,11,-3.0] + c[4,11,-2.0] + c[4,11,-1.41504]
   + c[4,11,-1.0] = 1
 R739: - m[4,1,44] - 500 c[4,11,0.0] >= -500
 R740: 3 m[4,0,44] - 4 m[4,0,45] - 4 m[4,0,46] + 3 m[4,0,47] + 3 m[4,1,44]
   - 4 m[4,1,45] + 3 m[4,1,46] + 3 m[4,1,47] - 500 c[4,11,0.0] >= -500
 R741: - 3 m[4,0,44] + 3 m[4,0,45] + 3 m[4,0,46] - 3 m[4,0,47]
   + 3 m[4,1,44] + 3 m[4,1,45] - 3 m[4,1,46] - 3 m[4,1,47]
   - 500 c[4,11,0.0] >= -500
 R742: c[4,11,-3.0] = 0
 R743: c[4,11,-2.0] = 0
 R744: c[4,11,-1.41504] = 0
 R745: c[4,11,-1.0] = 0
 R746: c[4,12,0.0] + c[4,12,-3.0] + c[4,12,-2.0] + c[4,12,-1.41504]
   + c[4,12,-1.0] = 1
 R747: - m[4,1,48] - 500 c[4,12,0.0] >= -500
 R748: 3 m[4,0,48] - 4 m[4,0,49] - 4 m[4,0,50] + 3 m[4,0,51] + 3 m[4,1,48]
   - 4 m[4,1,49] + 3 m[4,1,50] + 3 m[4,1,51] - 500 c[4,12,0.0] >= -500
 R749: - 3 m[4,0,48] + 3 m[4,0,49] + 3 m[4,0,50] - 3 m[4,0,51]
   + 3 m[4,1,48] + 3 m[4,1,49] - 3 m[4,1,50] - 3 m[4,1,51]
   - 500 c[4,12,0.0] >= -500
 R750: c[4,12,-3.0] = 0
 R751: c[4,12,-2.0] = 0
 R752: c[4,12,-1.41504] = 0
 R753: c[4,12,-1.0] = 0
 R754: c[4,13,0.0] + c[4,13,-3.0] + c[4,13,-2.0] + c[4,13,-1.41504]
   + c[4,13,-1.0] = 1
 R755: - m[4,1,52] - 500 c[4,13,0.0] >= -500
 R756: 3 m[4,0,52] - 4 m[4,0,53] - 4 m[4,0,54] + 3 m[4,0,55] + 3 m[4,1,52]
   - 4 m[4,1,53] + 3 m[4,1,54] + 3 m[4,1,55] - 500 c[4,13,0.0] >= -500
 R757: - 3 m[4,0,52] + 3 m[4,0,53] + 3 m[4,0,54] - 3 m[4,0,55]
   + 3 m[4,1,52] + 3 m[4,1,53] - 3 m[4,1,54] - 3 m[4,1,55]
   - 500 c[4,13,0.0] >= -500
 R758: c[4,13,-3.0] = 0
 R759: c[4,13,-2.0] = 0
 R760: c[4,13,-1.41504] = 0
 R761: c[4,13,-1.0] = 0
 R762: c[4,14,0.0] + c[4,14,-3.0] + c[4,14,-2.0] + c[4,14,-1.41504]
   + c[4,14,-1.0] = 1
 R763: - m[4,1,56] - 500 c[4,14,0.0] >= -500
 R764: 3 m[4,0,56] - 4 m[4,0,57] - 4 m[4,0,58] + 3 m[4,0,59] + 3 m[4,1,56]
   - 4 m[4,1,57] + 3 m[4,1,58] + 3 m[4,1,59] - 500 c[4,14,0.0] >= -500
 R765: - 3 m[4,0,56] + 3 m[4,0,57] + 3 m[4,0,58] - 3 m[4,0,59]
   + 3 m[4,1,56] + 3 m[4,1,57] - 3 m[4,1,58] - 3 m[4,1,59]
   - 500 c[4,14,0.0] >= -500
 R766: c[4,14,-3.0] = 0
 R767: c[4,14,-2.0] = 0
 R768: c[4,14,-1.41504] = 0
 R769: c[4,14,-1.0] = 0
 R770: c[4,15,0.0] + c[4,15,-3.0] + c[4,15,-2.0] + c[4,15,-1.41504]
   + c[4,15,-1.0] = 1
 R771: - m[4,1,60] - 500 c[4,15,0.0] >= -500
 R772: 3 m[4,0,60] - 4 m[4,0,61] - 4 m[4,0,62] + 3 m[4,0,63] + 3 m[4,1,60]
   - 4 m[4,1,61] + 3 m[4,1,62] + 3 m[4,1,63] - 500 c[4,15,0.0] >= -500
 R773: - 3 m[4,0,60] + 3 m[4,0,61] + 3 m[4,0,62] - 3 m[4,0,63]
   + 3 m[4,1,60] + 3 m[4,1,61] - 3 m[4,1,62] - 3 m[4,1,63]
   - 500 c[4,15,0.0] >= -500
 R774: c[4,15,-3.0] = 0
 R775: c[4,15,-2.0] = 0
 R776: c[4,15,-1.41504] = 0
 R777: c[4,15,-1.0] = 0
 R778: c[5,0,0.0] + c[5,0,-3.0] + c[5,0,-2.0] + c[5,0,-1.41504]
   + c[5,0,-1.0] = 1
 R779: - m[5,1,0] - 500 c[5,0,0.0] >= -500
 R780: 3 m[5,0,0] - 4 m[5,0,1] - 4 m[5,0,2] + 3 m[5,0,3] + 3 m[5,1,0]
   - 4 m[5,1,1] + 3 m[5,1,2] + 3 m[5,1,3] - 500 c[5,0,0.0] >= -500
 R781: - 3 m[5,0,0] + 3 m[5,0,1] + 3 m[5,0,2] - 3 m[5,0,3] + 3 m[5,1,0]
   + 3 m[5,1,1] - 3 m[5,1,2] - 3 m[5,1,3] - 500 c[5,0,0.0] >= -500
 R782: c[5,0,-3.0] = 0
 R783: c[5,0,-2.0] = 0
 R784: c[5,0,-1.41504] = 0
 R785: c[5,0,-1.0] = 0
 R786: c[5,1,0.0] + c[5,1,-3.0] + c[5,1,-2.0] + c[5,1,-1.41504]
   + c[5,1,-1.0] = 1
 R787: - m[5,1,4] - 500 c[5,1,0.0] >= -500
 R788: 3 m[5,0,4] - 4 m[5,0,5] - 4 m[5,0,6] + 3 m[5,0,7] + 3 m[5,1,4]
   - 4 m[5,1,5] + 3 m[5,1,6] + 3 m[5,1,7] - 500 c[5,1,0.0] >= -500
 R789: - 3 m[5,0,4] + 3 m[5,0,5] + 3 m[5,0,6] - 3 m[5,0,7] + 3 m[5,1,4]
   + 3 m[5,1,5] - 3 m[5,1,6] - 3 m[5,1,7] - 500 c[5,1,0.0] >= -500
 R790: c[5,1,-3.0] = 0
 R791: c[5,1,-2.0] = 0
 R792: c[5,1,-1.41504] = 0
 R793: c[5,1,-1.0] = 0
 R794: c[5,2,0.0] + c[5,2,-3.0] + c[5,2,-2.0] + c[5,2,-1.41504]
   + c[5,2,-1.0] = 1
 R795: - m[5,1,8] - 500 c[5,2,0.0] >= -500
 R796: 3 m[5,0,8] - 4 m[5,0,9] - 4 m[5,0,10] + 3 m[5,0,11] + 3 m[5,1,8]
   - 4 m[5,1,9] + 3 m[5,1,10] + 3 m[5,1,11] - 500 c[5,2,0.0] >= -500
 R797: - 3 m[5,0,8] + 3 m[5,0,9] + 3 m[5,0,10] - 3 m[5,0,11] + 3 m[5,1,8]
   + 3 m[5,1,9] - 3 m[5,1,10] - 3 m[5,1,11] - 500 c[5,2,0.0] >= -500
 R798: c[5,2,-3.0] = 0
 R799: c[5,2,-2.0] = 0
 R800: c[5,2,-1.41504] = 0
 R801: c[5,2,-1.0] = 0
 R802: c[5,3,0.0] + c[5,3,-3.0] + c[5,3,-2.0] + c[5,3,-1.41504]
   + c[5,3,-1.0] = 1
 R803: - m[5,1,12] - 500 c[5,3,0.0] >= -500
 R804: 3 m[5,0,12] - 4 m[5,0,13] - 4 m[5,0,14] + 3 m[5,0,15] + 3 m[5,1,12]
   - 4 m[5,1,13] + 3 m[5,1,14] + 3 m[5,1,15] - 500 c[5,3,0.0] >= -500
 R805: - 3 m[5,0,12] + 3 m[5,0,13] + 3 m[5,0,14] - 3 m[5,0,15]
   + 3 m[5,1,12] + 3 m[5,1,13] - 3 m[5,1,14] - 3 m[5,1,15] - 500 c[5,3,0.0]
   >= -500
 R806: c[5,3,-3.0] = 0
 R807: c[5,3,-2.0] = 0
 R808: c[5,3,-1.41504] = 0
 R809: c[5,3,-1.0] = 0
 R810: c[5,4,0.0] + c[5,4,-3.0] + c[5,4,-2.0] + c[5,4,-1.41504]
   + c[5,4,-1.0] = 1
 R811: - m[5,1,16] - 500 c[5,4,0.0] >= -500
 R812: 3 m[5,0,16] - 4 m[5,0,17] - 4 m[5,0,18] + 3 m[5,0,19] + 3 m[5,1,16]
   - 4 m[5,1,17] + 3 m[5,1,18] + 3 m[5,1,19] - 500 c[5,4,0.0] >= -500
 R813: - 3 m[5,0,16] + 3 m[5,0,17] + 3 m[5,0,18] - 3 m[5,0,19]
   + 3 m[5,1,16] + 3 m[5,1,17] - 3 m[5,1,18] - 3 m[5,1,19] - 500 c[5,4,0.0]
   >= -500
 R814: c[5,4,-3.0] = 0
 R815: c[5,4,-2.0] = 0
 R816: c[5,4,-1.41504] = 0
 R817: c[5,4,-1.0] = 0
 R818: c[5,5,0.0] + c[5,5,-3.0] + c[5,5,-2.0] + c[5,5,-1.41504]
   + c[5,5,-1.0] = 1
 R819: - m[5,1,20] - 500 c[5,5,0.0] >= -500
 R820: 3 m[5,0,20] - 4 m[5,0,21] - 4 m[5,0,22] + 3 m[5,0,23] + 3 m[5,1,20]
   - 4 m[5,1,21] + 3 m[5,1,22] + 3 m[5,1,23] - 500 c[5,5,0.0] >= -500
 R821: - 3 m[5,0,20] + 3 m[5,0,21] + 3 m[5,0,22] - 3 m[5,0,23]
   + 3 m[5,1,20] + 3 m[5,1,21] - 3 m[5,1,22] - 3 m[5,1,23] - 500 c[5,5,0.0]
   >= -500
 R822: c[5,5,-3.0] = 0
 R823: c[5,5,-2.0] = 0
 R824: c[5,5,-1.41504] = 0
 R825: c[5,5,-1.0] = 0
 R826: c[5,6,0.0] + c[5,6,-3.0] + c[5,6,-2.0] + c[5,6,-1.41504]
   + c[5,6,-1.0] = 1
 R827: - m[5,1,24] - 500 c[5,6,0.0] >= -500
 R828: 3 m[5,0,24] - 4 m[5,0,25] - 4 m[5,0,26] + 3 m[5,0,27] + 3 m[5,1,24]
   - 4 m[5,1,25] + 3 m[5,1,26] + 3 m[5,1,27] - 500 c[5,6,0.0] >= -500
 R829: - 3 m[5,0,24] + 3 m[5,0,25] + 3 m[5,0,26] - 3 m[5,0,27]
   + 3 m[5,1,24] + 3 m[5,1,25] - 3 m[5,1,26] - 3 m[5,1,27] - 500 c[5,6,0.0]
   >= -500
 R830: c[5,6,-3.0] = 0
 R831: c[5,6,-2.0] = 0
 R832: c[5,6,-1.41504] = 0
 R833: c[5,6,-1.0] = 0
 R834: c[5,7,0.0] + c[5,7,-3.0] + c[5,7,-2.0] + c[5,7,-1.41504]
   + c[5,7,-1.0] = 1
 R835: - m[5,1,28] - 500 c[5,7,0.0] >= -500
 R836: 3 m[5,0,28] - 4 m[5,0,29] - 4 m[5,0,30] + 3 m[5,0,31] + 3 m[5,1,28]
   - 4 m[5,1,29] + 3 m[5,1,30] + 3 m[5,1,31] - 500 c[5,7,0.0] >= -500
 R837: - 3 m[5,0,28] + 3 m[5,0,29] + 3 m[5,0,30] - 3 m[5,0,31]
   + 3 m[5,1,28] + 3 m[5,1,29] - 3 m[5,1,30] - 3 m[5,1,31] - 500 c[5,7,0.0]
   >= -500
 R838: c[5,7,-3.0] = 0
 R839: c[5,7,-2.0] = 0
 R840: c[5,7,-1.41504] = 0
 R841: c[5,7,-1.0] = 0
 R842: c[5,8,0.0] + c[5,8,-3.0] + c[5,8,-2.0] + c[5,8,-1.41504]
   + c[5,8,-1.0] = 1
 R843: - m[5,1,32] - 500 c[5,8,0.0] >= -500
 R844: 3 m[5,0,32] - 4 m[5,0,33] - 4 m[5,0,34] + 3 m[5,0,35] + 3 m[5,1,32]
   - 4 m[5,1,33] + 3 m[5,1,34] + 3 m[5,1,35] - 500 c[5,8,0.0] >= -500
 R845: - 3 m[5,0,32] + 3 m[5,0,33] + 3 m[5,0,34] - 3 m[5,0,35]
   + 3 m[5,1,32] + 3 m[5,1,33] - 3 m[5,1,34] - 3 m[5,1,35] - 500 c[5,8,0.0]
   >= -500
 R846: c[5,8,-3.0] = 0
 R847: c[5,8,-2.0] = 0
 R848: c[5,8,-1.41504] = 0
 R849: c[5,8,-1.0] = 0
 R850: c[5,9,0.0] + c[5,9,-3.0] + c[5,9,-2.0] + c[5,9,-1.41504]
   + c[5,9,-1.0] = 1
 R851: - m[5,1,36] - 500 c[5,9,0.0] >= -500
 R852: 3 m[5,0,36] - 4 m[5,0,37] - 4 m[5,0,38] + 3 m[5,0,39] + 3 m[5,1,36]
   - 4 m[5,1,37] + 3 m[5,1,38] + 3 m[5,1,39] - 500 c[5,9,0.0] >= -500
 R853: - 3 m[5,0,36] + 3 m[5,0,37] + 3 m[5,0,38] - 3 m[5,0,39]
   + 3 m[5,1,36] + 3 m[5,1,37] - 3 m[5,1,38] - 3 m[5,1,39] - 500 c[5,9,0.0]
   >= -500
 R854: c[5,9,-3.0] = 0
 R855: c[5,9,-2.0] = 0
 R856: c[5,9,-1.41504] = 0
 R857: c[5,9,-1.0] = 0
 R858: c[5,10,0.0] + c[5,10,-3.0] + c[5,10,-2.0] + c[5,10,-1.41504]
   + c[5,10,-1.0] = 1
 R859: - m[5,1,40] - 500 c[5,10,0.0] >= -500
 R860: 3 m[5,0,40] - 4 m[5,0,41] - 4 m[5,0,42] + 3 m[5,0,43] + 3 m[5,1,40]
   - 4 m[5,1,41] + 3 m[5,1,42] + 3 m[5,1,43] - 500 c[5,10,0.0] >= -500
 R861: - 3 m[5,0,40] + 3 m[5,0,41] + 3 m[5,0,42] - 3 m[5,0,43]
   + 3 m[5,1,40] + 3 m[5,1,41] - 3 m[5,1,42] - 3 m[5,1,43]
   - 500 c[5,10,0.0] >= -500
 R862: c[5,10,-3.0] = 0
 R863: c[5,10,-2.0] = 0
 R864: c[5,10,-1.41504] = 0
 R865: c[5,10,-1.0] = 0
 R866: c[5,11,0.0] + c[5,11,-3.0] + c[5,11,-2.0] + c[5,11,-1.41504]
   + c[5,11,-1.0] = 1
 R867: - m[5,1,44] - 500 c[5,11,0.0] >= -500
 R868: 3 m[5,0,44] - 4 m[5,0,45] - 4 m[5,0,46] + 3 m[5,0,47] + 3 m[5,1,44]
   - 4 m[5,1,45] + 3 m[5,1,46] + 3 m[5,1,47] - 500 c[5,11,0.0] >= -500
 R869: - 3 m[5,0,44] + 3 m[5,0,45] + 3 m[5,0,46] - 3 m[5,0,47]
   + 3 m[5,1,44] + 3 m[5,1,45] - 3 m[5,1,46] - 3 m[5,1,47]
   - 500 c[5,11,0.0] >= -500
 R870: c[5,11,-3.0] = 0
 R871: c[5,11,-2.0] = 0
 R872: c[5,11,-1.41504] = 0
 R873: c[5,11,-1.0] = 0
 R874: c[5,12,0.0] + c[5,12,-3.0] + c[5,12,-2.0] + c[5,12,-1.41504]
   + c[5,12,-1.0] = 1
 R875: c[5,12,0.0] = 0
 R876: c[5,12,-3.0] = 0
 R877: - m[5,0,50] - m[5,1,49] - m[5,1,51] - 500 c[5,12,-2.0] >= -502
 R878: m[5,0,50] - m[5,1,49] + m[5,1,51] - 500 c[5,12,-2.0] >= -500
 R879: m[5,0,49] + m[5,0,50] - m[5,1,50] - 500 c[5,12,-2.0] >= -500
 R880: m[5,0,50] + m[5,1,49] - m[5,1,51] - 500 c[5,12,-2.0] >= -500
 R881: - m[5,0,49] - m[5,0,50] - m[5,1,50] - 500 c[5,12,-2.0] >= -502
 R882: - m[5,0,49] + m[5,0,50] + m[5,1,50] - 500 c[5,12,-2.0] >= -500
 R883: - m[5,0,50] + m[5,1,49] + m[5,1,51] - 500 c[5,12,-2.0] >= -500
 R884: m[5,0,49] - m[5,0,50] + m[5,1,50] - 500 c[5,12,-2.0] >= -500
 R885: c[5,12,-1.41504] = 0
 R886: c[5,12,-1.0] = 0
 R887: c[5,13,0.0] + c[5,13,-3.0] + c[5,13,-2.0] + c[5,13,-1.41504]
   + c[5,13,-1.0] = 1
 R888: - m[5,1,52] - 500 c[5,13,0.0] >= -500
 R889: 3 m[5,0,52] - 4 m[5,0,53] - 4 m[5,0,54] + 3 m[5,0,55] + 3 m[5,1,52]
   - 4 m[5,1,53] + 3 m[5,1,54] + 3 m[5,1,55] - 500 c[5,13,0.0] >= -500
 R890: - 3 m[5,0,52] + 3 m[5,0,53] + 3 m[5,0,54] - 3 m[5,0,55]
   + 3 m[5,1,52] + 3 m[5,1,53] - 3 m[5,1,54] - 3 m[5,1,55]
   - 500 c[5,13,0.0] >= -500
 R891: c[5,13,-3.0] = 0
 R892: c[5,13,-2.0] = 0
 R893: c[5,13,-1.41504] = 0
 R894: c[5,13,-1.0] = 0
 R895: c[5,14,0.0] + c[5,14,-3.0] + c[5,14,-2.0] + c[5,14,-1.41504]
   + c[5,14,-1.0] = 1
 R896: c[5,14,0.0] = 0
 R897: c[5,14,-3.0] = 0
 R898: - m[5,0,58] - m[5,1,57] - m[5,1,59] - 500 c[5,14,-2.0] >= -502
 R899: m[5,0,58] - m[5,1,57] + m[5,1,59] - 500 c[5,14,-2.0] >= -500
 R900: m[5,0,57] + m[5,0,58] - m[5,1,58] - 500 c[5,14,-2.0] >= -500
 R901: m[5,0,58] + m[5,1,57] - m[5,1,59] - 500 c[5,14,-2.0] >= -500
 R902: - m[5,0,57] - m[5,0,58] - m[5,1,58] - 500 c[5,14,-2.0] >= -502
 R903: - m[5,0,57] + m[5,0,58] + m[5,1,58] - 500 c[5,14,-2.0] >= -500
 R904: - m[5,0,58] + m[5,1,57] + m[5,1,59] - 500 c[5,14,-2.0] >= -500
 R905: m[5,0,57] - m[5,0,58] + m[5,1,58] - 500 c[5,14,-2.0] >= -500
 R906: c[5,14,-1.41504] = 0
 R907: c[5,14,-1.0] = 0
 R908: c[5,15,0.0] + c[5,15,-3.0] + c[5,15,-2.0] + c[5,15,-1.41504]
   + c[5,15,-1.0] = 1
 R909: - m[5,1,60] - 500 c[5,15,0.0] >= -500
 R910: 3 m[5,0,60] - 4 m[5,0,61] - 4 m[5,0,62] + 3 m[5,0,63] + 3 m[5,1,60]
   - 4 m[5,1,61] + 3 m[5,1,62] + 3 m[5,1,63] - 500 c[5,15,0.0] >= -500
 R911: - 3 m[5,0,60] + 3 m[5,0,61] + 3 m[5,0,62] - 3 m[5,0,63]
   + 3 m[5,1,60] + 3 m[5,1,61] - 3 m[5,1,62] - 3 m[5,1,63]
   - 500 c[5,15,0.0] >= -500
 R912: c[5,15,-3.0] = 0
 R913: c[5,15,-2.0] = 0
 R914: c[5,15,-1.41504] = 0
 R915: c[5,15,-1.0] = 0
 R916: c[6,0,0.0] + c[6,0,-3.0] + c[6,0,-2.0] + c[6,0,-1.41504]
   + c[6,0,-1.0] = 1
 R917: - m[6,1,0] - 500 c[6,0,0.0] >= -500
 R918: 3 m[6,0,0] - 4 m[6,0,1] - 4 m[6,0,2] + 3 m[6,0,3] + 3 m[6,1,0]
   - 4 m[6,1,1] + 3 m[6,1,2] + 3 m[6,1,3] - 500 c[6,0,0.0] >= -500
 R919: - 3 m[6,0,0] + 3 m[6,0,1] + 3 m[6,0,2] - 3 m[6,0,3] + 3 m[6,1,0]
   + 3 m[6,1,1] - 3 m[6,1,2] - 3 m[6,1,3] - 500 c[6,0,0.0] >= -500
 R920: c[6,0,-3.0] = 0
 R921: c[6,0,-2.0] = 0
 R922: c[6,0,-1.41504] = 0
 R923: c[6,0,-1.0] = 0
 R924: c[6,1,0.0] + c[6,1,-3.0] + c[6,1,-2.0] + c[6,1,-1.41504]
   + c[6,1,-1.0] = 1
 R925: - m[6,1,4] - 500 c[6,1,0.0] >= -500
 R926: 3 m[6,0,4] - 4 m[6,0,5] - 4 m[6,0,6] + 3 m[6,0,7] + 3 m[6,1,4]
   - 4 m[6,1,5] + 3 m[6,1,6] + 3 m[6,1,7] - 500 c[6,1,0.0] >= -500
 R927: - 3 m[6,0,4] + 3 m[6,0,5] + 3 m[6,0,6] - 3 m[6,0,7] + 3 m[6,1,4]
   + 3 m[6,1,5] - 3 m[6,1,6] - 3 m[6,1,7] - 500 c[6,1,0.0] >= -500
 R928: c[6,1,-3.0] = 0
 R929: c[6,1,-2.0] = 0
 R930: c[6,1,-1.41504] = 0
 R931: c[6,1,-1.0] = 0
 R932: c[6,2,0.0] + c[6,2,-3.0] + c[6,2,-2.0] + c[6,2,-1.41504]
   + c[6,2,-1.0] = 1
 R933: - m[6,1,8] - 500 c[6,2,0.0] >= -500
 R934: 3 m[6,0,8] - 4 m[6,0,9] - 4 m[6,0,10] + 3 m[6,0,11] + 3 m[6,1,8]
   - 4 m[6,1,9] + 3 m[6,1,10] + 3 m[6,1,11] - 500 c[6,2,0.0] >= -500
 R935: - 3 m[6,0,8] + 3 m[6,0,9] + 3 m[6,0,10] - 3 m[6,0,11] + 3 m[6,1,8]
   + 3 m[6,1,9] - 3 m[6,1,10] - 3 m[6,1,11] - 500 c[6,2,0.0] >= -500
 R936: c[6,2,-3.0] = 0
 R937: c[6,2,-2.0] = 0
 R938: c[6,2,-1.41504] = 0
 R939: c[6,2,-1.0] = 0
 R940: c[6,3,0.0] + c[6,3,-3.0] + c[6,3,-2.0] + c[6,3,-1.41504]
   + c[6,3,-1.0] = 1
 R941: c[6,3,0.0] = 0
 R942: - m[6,0,13] - m[6,0,15] - m[6,1,14] - 500 c[6,3,-3.0] >= -502
 R943: m[6,0,13] + m[6,0,15] - m[6,1,14] - 500 c[6,3,-3.0] >= -500
 R944: - m[6,0,13] + m[6,0,15] + m[6,1,14] - 500 c[6,3,-3.0] >= -500
 R945: m[6,0,13] - m[6,0,15] + m[6,1,14] - 500 c[6,3,-3.0] >= -500
 R946: c[6,3,-2.0] = 0
 R947: c[6,3,-1.41504] = 0
 R948: c[6,3,-1.0] = 0
 R949: c[6,4,0.0] + c[6,4,-3.0] + c[6,4,-2.0] + c[6,4,-1.41504]
   + c[6,4,-1.0] = 1
 R950: - m[6,1,16] - 500 c[6,4,0.0] >= -500
 R951: 3 m[6,0,16] - 4 m[6,0,17] - 4 m[6,0,18] + 3 m[6,0,19] + 3 m[6,1,16]
   - 4 m[6,1,17] + 3 m[6,1,18] + 3 m[6,1,19] - 500 c[6,4,0.0] >= -500
 R952: - 3 m[6,0,16] + 3 m[6,0,17] + 3 m[6,0,18] - 3 m[6,0,19]
   + 3 m[6,1,16] + 3 m[6,1,17] - 3 m[6,1,18] - 3 m[6,1,19] - 500 c[6,4,0.0]
   >= -500
 R953: c[6,4,-3.0] = 0
 R954: c[6,4,-2.0] = 0
 R955: c[6,4,-1.41504] = 0
 R956: c[6,4,-1.0] = 0
 R957: c[6,5,0.0] + c[6,5,-3.0] + c[6,5,-2.0] + c[6,5,-1.41504]
   + c[6,5,-1.0] = 1
 R958: - m[6,1,20] - 500 c[6,5,0.0] >= -500
 R959: 3 m[6,0,20] - 4 m[6,0,21] - 4 m[6,0,22] + 3 m[6,0,23] + 3 m[6,1,20]
   - 4 m[6,1,21] + 3 m[6,1,22] + 3 m[6,1,23] - 500 c[6,5,0.0] >= -500
 R960: - 3 m[6,0,20] + 3 m[6,0,21] + 3 m[6,0,22] - 3 m[6,0,23]
   + 3 m[6,1,20] + 3 m[6,1,21] - 3 m[6,1,22] - 3 m[6,1,23] - 500 c[6,5,0.0]
   >= -500
 R961: c[6,5,-3.0] = 0
 R962: c[6,5,-2.0] = 0
 R963: c[6,5,-1.41504] = 0
 R964: c[6,5,-1.0] = 0
 R965: c[6,6,0.0] + c[6,6,-3.0] + c[6,6,-2.0] + c[6,6,-1.41504]
   + c[6,6,-1.0] = 1
 R966: - m[6,1,24] - 500 c[6,6,0.0] >= -500
 R967: 3 m[6,0,24] - 4 m[6,0,25] - 4 m[6,0,26] + 3 m[6,0,27] + 3 m[6,1,24]
   - 4 m[6,1,25] + 3 m[6,1,26] + 3 m[6,1,27] - 500 c[6,6,0.0] >= -500
 R968: - 3 m[6,0,24] + 3 m[6,0,25] + 3 m[6,0,26] - 3 m[6,0,27]
   + 3 m[6,1,24] + 3 m[6,1,25] - 3 m[6,1,26] - 3 m[6,1,27] - 500 c[6,6,0.0]
   >= -500
 R969: c[6,6,-3.0] = 0
 R970: c[6,6,-2.0] = 0
 R971: c[6,6,-1.41504] = 0
 R972: c[6,6,-1.0] = 0
 R973: c[6,7,0.0] + c[6,7,-3.0] + c[6,7,-2.0] + c[6,7,-1.41504]
   + c[6,7,-1.0] = 1
 R974: - m[6,1,28] - 500 c[6,7,0.0] >= -500
 R975: 3 m[6,0,28] - 4 m[6,0,29] - 4 m[6,0,30] + 3 m[6,0,31] + 3 m[6,1,28]
   - 4 m[6,1,29] + 3 m[6,1,30] + 3 m[6,1,31] - 500 c[6,7,0.0] >= -500
 R976: - 3 m[6,0,28] + 3 m[6,0,29] + 3 m[6,0,30] - 3 m[6,0,31]
   + 3 m[6,1,28] + 3 m[6,1,29] - 3 m[6,1,30] - 3 m[6,1,31] - 500 c[6,7,0.0]
   >= -500
 R977: c[6,7,-3.0] = 0
 R978: c[6,7,-2.0] = 0
 R979: c[6,7,-1.41504] = 0
 R980: c[6,7,-1.0] = 0
 R981: c[6,8,0.0] + c[6,8,-3.0] + c[6,8,-2.0] + c[6,8,-1.41504]
   + c[6,8,-1.0] = 1
 R982: - m[6,1,32] - 500 c[6,8,0.0] >= -500
 R983: 3 m[6,0,32] - 4 m[6,0,33] - 4 m[6,0,34] + 3 m[6,0,35] + 3 m[6,1,32]
   - 4 m[6,1,33] + 3 m[6,1,34] + 3 m[6,1,35] - 500 c[6,8,0.0] >= -500
 R984: - 3 m[6,0,32] + 3 m[6,0,33] + 3 m[6,0,34] - 3 m[6,0,35]
   + 3 m[6,1,32] + 3 m[6,1,33] - 3 m[6,1,34] - 3 m[6,1,35] - 500 c[6,8,0.0]
   >= -500
 R985: c[6,8,-3.0] = 0
 R986: c[6,8,-2.0] = 0
 R987: c[6,8,-1.41504] = 0
 R988: c[6,8,-1.0] = 0
 R989: c[6,9,0.0] + c[6,9,-3.0] + c[6,9,-2.0] + c[6,9,-1.41504]
   + c[6,9,-1.0] = 1
 R990: - m[6,1,36] - 500 c[6,9,0.0] >= -500
 R991: 3 m[6,0,36] - 4 m[6,0,37] - 4 m[6,0,38] + 3 m[6,0,39] + 3 m[6,1,36]
   - 4 m[6,1,37] + 3 m[6,1,38] + 3 m[6,1,39] - 500 c[6,9,0.0] >= -500
 R992: - 3 m[6,0,36] + 3 m[6,0,37] + 3 m[6,0,38] - 3 m[6,0,39]
   + 3 m[6,1,36] + 3 m[6,1,37] - 3 m[6,1,38] - 3 m[6,1,39] - 500 c[6,9,0.0]
   >= -500
 R993: c[6,9,-3.0] = 0
 R994: c[6,9,-2.0] = 0
 R995: c[6,9,-1.41504] = 0
 R996: c[6,9,-1.0] = 0
 R997: c[6,10,0.0] + c[6,10,-3.0] + c[6,10,-2.0] + c[6,10,-1.41504]
   + c[6,10,-1.0] = 1
 R998: - m[6,1,40] - 500 c[6,10,0.0] >= -500
 R999: 3 m[6,0,40] - 4 m[6,0,41] - 4 m[6,0,42] + 3 m[6,0,43] + 3 m[6,1,40]
   - 4 m[6,1,41] + 3 m[6,1,42] + 3 m[6,1,43] - 500 c[6,10,0.0] >= -500
 R1000: - 3 m[6,0,40] + 3 m[6,0,41] + 3 m[6,0,42] - 3 m[6,0,43]
   + 3 m[6,1,40] + 3 m[6,1,41] - 3 m[6,1,42] - 3 m[6,1,43]
   - 500 c[6,10,0.0] >= -500
 R1001: c[6,10,-3.0] = 0
 R1002: c[6,10,-2.0] = 0
 R1003: c[6,10,-1.41504] = 0
 R1004: c[6,10,-1.0] = 0
 R1005: c[6,11,0.0] + c[6,11,-3.0] + c[6,11,-2.0] + c[6,11,-1.41504]
   + c[6,11,-1.0] = 1
 R1006: c[6,11,0.0] = 0
 R1007: - m[6,0,45] - m[6,0,47] - m[6,1,46] - 500 c[6,11,-3.0] >= -502
 R1008: m[6,0,45] + m[6,0,47] - m[6,1,46] - 500 c[6,11,-3.0] >= -500
 R1009: - m[6,0,45] + m[6,0,47] + m[6,1,46] - 500 c[6,11,-3.0] >= -500
 R1010: m[6,0,45] - m[6,0,47] + m[6,1,46] - 500 c[6,11,-3.0] >= -500
 R1011: c[6,11,-2.0] = 0
 R1012: c[6,11,-1.41504] = 0
 R1013: c[6,11,-1.0] = 0
 R1014: c[6,12,0.0] + c[6,12,-3.0] + c[6,12,-2.0] + c[6,12,-1.41504]
   + c[6,12,-1.0] = 1
 R1015: - m[6,1,48] - 500 c[6,12,0.0] >= -500
 R1016: 3 m[6,0,48] - 4 m[6,0,49] - 4 m[6,0,50] + 3 m[6,0,51] + 3 m[6,1,48]
   - 4 m[6,1,49] + 3 m[6,1,50] + 3 m[6,1,51] - 500 c[6,12,0.0] >= -500
 R1017: - 3 m[6,0,48] + 3 m[6,0,49] + 3 m[6,0,50] - 3 m[6,0,51]
   + 3 m[6,1,48] + 3 m[6,1,49] - 3 m[6,1,50] - 3 m[6,1,51]
   - 500 c[6,12,0.0] >= -500
 R1018: c[6,12,-3.0] = 0
 R1019: c[6,12,-2.0] = 0
 R1020: c[6,12,-1.41504] = 0
 R1021: c[6,12,-1.0] = 0
 R1022: c[6,13,0.0] + c[6,13,-3.0] + c[6,13,-2.0] + c[6,13,-1.41504]
   + c[6,13,-1.0] = 1
 R1023: - m[6,1,52] - 500 c[6,13,0.0] >= -500
 R1024: 3 m[6,0,52] - 4 m[6,0,53] - 4 m[6,0,54] + 3 m[6,0,55] + 3 m[6,1,52]
   - 4 m[6,1,53] + 3 m[6,1,54] + 3 m[6,1,55] - 500 c[6,13,0.0] >= -500
 R1025: - 3 m[6,0,52] + 3 m[6,0,53] + 3 m[6,0,54] - 3 m[6,0,55]
   + 3 m[6,1,52] + 3 m[6,1,53] - 3 m[6,1,54] - 3 m[6,1,55]
   - 500 c[6,13,0.0] >= -500
 R1026: c[6,13,-3.0] = 0
 R1027: c[6,13,-2.0] = 0
 R1028: c[6,13,-1.41504] = 0
 R1029: c[6,13,-1.0] = 0
 R1030: c[6,14,0.0] + c[6,14,-3.0] + c[6,14,-2.0] + c[6,14,-1.41504]
   + c[6,14,-1.0] = 1
 R1031: - m[6,1,56] - 500 c[6,14,0.0] >= -500
 R1032: 3 m[6,0,56] - 4 m[6,0,57] - 4 m[6,0,58] + 3 m[6,0,59] + 3 m[6,1,56]
   - 4 m[6,1,57] + 3 m[6,1,58] + 3 m[6,1,59] - 500 c[6,14,0.0] >= -500
 R1033: - 3 m[6,0,56] + 3 m[6,0,57] + 3 m[6,0,58] - 3 m[6,0,59]
   + 3 m[6,1,56] + 3 m[6,1,57] - 3 m[6,1,58] - 3 m[6,1,59]
   - 500 c[6,14,0.0] >= -500
 R1034: c[6,14,-3.0] = 0
 R1035: c[6,14,-2.0] = 0
 R1036: c[6,14,-1.41504] = 0
 R1037: c[6,14,-1.0] = 0
 R1038: c[6,15,0.0] + c[6,15,-3.0] + c[6,15,-2.0] + c[6,15,-1.41504]
   + c[6,15,-1.0] = 1
 R1039: - m[6,1,60] - 500 c[6,15,0.0] >= -500
 R1040: 3 m[6,0,60] - 4 m[6,0,61] - 4 m[6,0,62] + 3 m[6,0,63] + 3 m[6,1,60]
   - 4 m[6,1,61] + 3 m[6,1,62] + 3 m[6,1,63] - 500 c[6,15,0.0] >= -500
 R1041: - 3 m[6,0,60] + 3 m[6,0,61] + 3 m[6,0,62] - 3 m[6,0,63]
   + 3 m[6,1,60] + 3 m[6,1,61] - 3 m[6,1,62] - 3 m[6,1,63]
   - 500 c[6,15,0.0] >= -500
 R1042: c[6,15,-3.0] = 0
 R1043: c[6,15,-2.0] = 0
 R1044: c[6,15,-1.41504] = 0
 R1045: c[6,15,-1.0] = 0
 R1046: c[7,0,0.0] + c[7,0,-3.0] + c[7,0,-2.0] + c[7,0,-1.41504]
   + c[7,0,-1.0] = 1
 R1047: - m[7,1,0] - 500 c[7,0,0.0] >= -500
 R1048: 3 m[7,0,0] - 4 m[7,0,1] - 4 m[7,0,2] + 3 m[7,0,3] + 3 m[7,1,0]
   - 4 m[7,1,1] + 3 m[7,1,2] + 3 m[7,1,3] - 500 c[7,0,0.0] >= -500
 R1049: - 3 m[7,0,0] + 3 m[7,0,1] + 3 m[7,0,2] - 3 m[7,0,3] + 3 m[7,1,0]
   + 3 m[7,1,1] - 3 m[7,1,2] - 3 m[7,1,3] - 500 c[7,0,0.0] >= -500
 R1050: c[7,0,-3.0] = 0
 R1051: c[7,0,-2.0] = 0
 R1052: c[7,0,-1.41504] = 0
 R1053: c[7,0,-1.0] = 0
 R1054: c[7,1,0.0] + c[7,1,-3.0] + c[7,1,-2.0] + c[7,1,-1.41504]
   + c[7,1,-1.0] = 1
 R1055: - m[7,1,4] - 500 c[7,1,0.0] >= -500
 R1056: 3 m[7,0,4] - 4 m[7,0,5] - 4 m[7,0,6] + 3 m[7,0,7] + 3 m[7,1,4]
   - 4 m[7,1,5] + 3 m[7,1,6] + 3 m[7,1,7] - 500 c[7,1,0.0] >= -500
 R1057: - 3 m[7,0,4] + 3 m[7,0,5] + 3 m[7,0,6] - 3 m[7,0,7] + 3 m[7,1,4]
   + 3 m[7,1,5] - 3 m[7,1,6] - 3 m[7,1,7] - 500 c[7,1,0.0] >= -500
 R1058: c[7,1,-3.0] = 0
 R1059: c[7,1,-2.0] = 0
 R1060: c[7,1,-1.41504] = 0
 R1061: c[7,1,-1.0] = 0
 R1062: c[7,2,0.0] + c[7,2,-3.0] + c[7,2,-2.0] + c[7,2,-1.41504]
   + c[7,2,-1.0] = 1
 R1063: - m[7,1,8] - 500 c[7,2,0.0] >= -500
 R1064: 3 m[7,0,8] - 4 m[7,0,9] - 4 m[7,0,10] + 3 m[7,0,11] + 3 m[7,1,8]
   - 4 m[7,1,9] + 3 m[7,1,10] + 3 m[7,1,11] - 500 c[7,2,0.0] >= -500
 R1065: - 3 m[7,0,8] + 3 m[7,0,9] + 3 m[7,0,10] - 3 m[7,0,11] + 3 m[7,1,8]
   + 3 m[7,1,9] - 3 m[7,1,10] - 3 m[7,1,11] - 500 c[7,2,0.0] >= -500
 R1066: c[7,2,-3.0] = 0
 R1067: c[7,2,-2.0] = 0
 R1068: c[7,2,-1.41504] = 0
 R1069: c[7,2,-1.0] = 0
 R1070: c[7,3,0.0] + c[7,3,-3.0] + c[7,3,-2.0] + c[7,3,-1.41504]
   + c[7,3,-1.0] = 1
 R1071: - m[7,1,12] - 500 c[7,3,0.0] >= -500
 R1072: 3 m[7,0,12] - 4 m[7,0,13] - 4 m[7,0,14] + 3 m[7,0,15] + 3 m[7,1,12]
   - 4 m[7,1,13] + 3 m[7,1,14] + 3 m[7,1,15] - 500 c[7,3,0.0] >= -500
 R1073: - 3 m[7,0,12] + 3 m[7,0,13] + 3 m[7,0,14] - 3 m[7,0,15]
   + 3 m[7,1,12] + 3 m[7,1,13] - 3 m[7,1,14] - 3 m[7,1,15] - 500 c[7,3,0.0]
   >= -500
 R1074: c[7,3,-3.0] = 0
 R1075: c[7,3,-2.0] = 0
 R1076: c[7,3,-1.41504] = 0
 R1077: c[7,3,-1.0] = 0
 R1078: c[7,4,0.0] + c[7,4,-3.0] + c[7,4,-2.0] + c[7,4,-1.41504]
   + c[7,4,-1.0] = 1
 R1079: - m[7,1,16] - 500 c[7,4,0.0] >= -500
 R1080: 3 m[7,0,16] - 4 m[7,0,17] - 4 m[7,0,18] + 3 m[7,0,19] + 3 m[7,1,16]
   - 4 m[7,1,17] + 3 m[7,1,18] + 3 m[7,1,19] - 500 c[7,4,0.0] >= -500
 R1081: - 3 m[7,0,16] + 3 m[7,0,17] + 3 m[7,0,18] - 3 m[7,0,19]
   + 3 m[7,1,16] + 3 m[7,1,17] - 3 m[7,1,18] - 3 m[7,1,19] - 500 c[7,4,0.0]
   >= -500
 R1082: c[7,4,-3.0] = 0
 R1083: c[7,4,-2.0] = 0
 R1084: c[7,4,-1.41504] = 0
 R1085: c[7,4,-1.0] = 0
 R1086: c[7,5,0.0] + c[7,5,-3.0] + c[7,5,-2.0] + c[7,5,-1.41504]
   + c[7,5,-1.0] = 1
 R1087: - m[7,1,20] - 500 c[7,5,0.0] >= -500
 R1088: 3 m[7,0,20] - 4 m[7,0,21] - 4 m[7,0,22] + 3 m[7,0,23] + 3 m[7,1,20]
   - 4 m[7,1,21] + 3 m[7,1,22] + 3 m[7,1,23] - 500 c[7,5,0.0] >= -500
 R1089: - 3 m[7,0,20] + 3 m[7,0,21] + 3 m[7,0,22] - 3 m[7,0,23]
   + 3 m[7,1,20] + 3 m[7,1,21] - 3 m[7,1,22] - 3 m[7,1,23] - 500 c[7,5,0.0]
   >= -500
 R1090: c[7,5,-3.0] = 0
 R1091: c[7,5,-2.0] = 0
 R1092: c[7,5,-1.41504] = 0
 R1093: c[7,5,-1.0] = 0
 R1094: c[7,6,0.0] + c[7,6,-3.0] + c[7,6,-2.0] + c[7,6,-1.41504]
   + c[7,6,-1.0] = 1
 R1095: - m[7,1,24] - 500 c[7,6,0.0] >= -500
 R1096: 3 m[7,0,24] - 4 m[7,0,25] - 4 m[7,0,26] + 3 m[7,0,27] + 3 m[7,1,24]
   - 4 m[7,1,25] + 3 m[7,1,26] + 3 m[7,1,27] - 500 c[7,6,0.0] >= -500
 R1097: - 3 m[7,0,24] + 3 m[7,0,25] + 3 m[7,0,26] - 3 m[7,0,27]
   + 3 m[7,1,24] + 3 m[7,1,25] - 3 m[7,1,26] - 3 m[7,1,27] - 500 c[7,6,0.0]
   >= -500
 R1098: c[7,6,-3.0] = 0
 R1099: c[7,6,-2.0] = 0
 R1100: c[7,6,-1.41504] = 0
 R1101: c[7,6,-1.0] = 0
 R1102: c[7,7,0.0] + c[7,7,-3.0] + c[7,7,-2.0] + c[7,7,-1.41504]
   + c[7,7,-1.0] = 1
 R1103: - m[7,1,28] - 500 c[7,7,0.0] >= -500
 R1104: 3 m[7,0,28] - 4 m[7,0,29] - 4 m[7,0,30] + 3 m[7,0,31] + 3 m[7,1,28]
   - 4 m[7,1,29] + 3 m[7,1,30] + 3 m[7,1,31] - 500 c[7,7,0.0] >= -500
 R1105: - 3 m[7,0,28] + 3 m[7,0,29] + 3 m[7,0,30] - 3 m[7,0,31]
   + 3 m[7,1,28] + 3 m[7,1,29] - 3 m[7,1,30] - 3 m[7,1,31] - 500 c[7,7,0.0]
   >= -500
 R1106: c[7,7,-3.0] = 0
 R1107: c[7,7,-2.0] = 0
 R1108: c[7,7,-1.41504] = 0
 R1109: c[7,7,-1.0] = 0
 R1110: c[7,8,0.0] + c[7,8,-3.0] + c[7,8,-2.0] + c[7,8,-1.41504]
   + c[7,8,-1.0] = 1
 R1111: c[7,8,0.0] = 0
 R1112: - m[7,0,34] - m[7,1,32] - m[7,1,34] - 500 c[7,8,-3.0] >= -502
 R1113: m[7,0,34] - m[7,1,32] + m[7,1,34] - 500 c[7,8,-3.0] >= -500
 R1114: m[7,0,34] + m[7,1,32] - m[7,1,34] - 500 c[7,8,-3.0] >= -500
 R1115: - m[7,0,34] + m[7,1,32] + m[7,1,34] - 500 c[7,8,-3.0] >= -500
 R1116: c[7,8,-2.0] = 0
 R1117: c[7,8,-1.41504] = 0
 R1118: c[7,8,-1.0] = 0
 R1119: c[7,9,0.0] + c[7,9,-3.0] + c[7,9,-2.0] + c[7,9,-1.41504]
   + c[7,9,-1.0] = 1
 R1120: - m[7,1,36] - 500 c[7,9,0.0] >= -500
 R1121: 3 m[7,0,36] - 4 m[7,0,37] - 4 m[7,0,38] + 3 m[7,0,39] + 3 m[7,1,36]
   - 4 m[7,1,37] + 3 m[7,1,38] + 3 m[7,1,39] - 500 c[7,9,0.0] >= -500
 R1122: - 3 m[7,0,36] + 3 m[7,0,37] + 3 m[7,0,38] - 3 m[7,0,39]
   + 3 m[7,1,36] + 3 m[7,1,37] - 3 m[7,1,38] - 3 m[7,1,39] - 500 c[7,9,0.0]
   >= -500
 R1123: c[7,9,-3.0] = 0
 R1124: c[7,9,-2.0] = 0
 R1125: c[7,9,-1.41504] = 0
 R1126: c[7,9,-1.0] = 0
 R1127: c[7,10,0.0] + c[7,10,-3.0] + c[7,10,-2.0] + c[7,10,-1.41504]
   + c[7,10,-1.0] = 1
 R1128: c[7,10,0.0] = 0
 R1129: - m[7,0,42] - m[7,1,40] - m[7,1,41] + m[7,1,42] - 500 c[7,10,-3.0]
   >= -502
 R1130: - m[7,0,42] - m[7,1,40] + m[7,1,41] - m[7,1,42] - 500 c[7,10,-3.0]
   >= -502
 R1131: m[7,0,42] - m[7,1,40] - m[7,1,41] - m[7,1,42] - 500 c[7,10,-3.0]
   >= -502
 R1132: - m[7,0,42] + m[7,1,40] - m[7,1,41] - m[7,1,42] - 500 c[7,10,-3.0]
   >= -502
 R1133: m[7,0,42] - m[7,1,40] + m[7,1,41] + m[7,1,42] - 500 c[7,10,-3.0]
   >= -500
 R1134: - m[7,0,42] + m[7,1,40] + m[7,1,41] + m[7,1,42] - 500 c[7,10,-3.0]
   >= -500
 R1135: m[7,0,42] + m[7,1,40] - m[7,1,41] + m[7,1,42] - 500 c[7,10,-3.0]
   >= -500
 R1136: m[7,0,42] + m[7,1,40] + m[7,1,41] - m[7,1,42] - 500 c[7,10,-3.0]
   >= -500
 R1137: c[7,10,-2.0] = 0
 R1138: c[7,10,-1.41504] = 0
 R1139: c[7,10,-1.0] = 0
 R1140: c[7,11,0.0] + c[7,11,-3.0] + c[7,11,-2.0] + c[7,11,-1.41504]
   + c[7,11,-1.0] = 1
 R1141: - m[7,1,44] - 500 c[7,11,0.0] >= -500
 R1142: 3 m[7,0,44] - 4 m[7,0,45] - 4 m[7,0,46] + 3 m[7,0,47] + 3 m[7,1,44]
   - 4 m[7,1,45] + 3 m[7,1,46] + 3 m[7,1,47] - 500 c[7,11,0.0] >= -500
 R1143: - 3 m[7,0,44] + 3 m[7,0,45] + 3 m[7,0,46] - 3 m[7,0,47]
   + 3 m[7,1,44] + 3 m[7,1,45] - 3 m[7,1,46] - 3 m[7,1,47]
   - 500 c[7,11,0.0] >= -500
 R1144: c[7,11,-3.0] = 0
 R1145: c[7,11,-2.0] = 0
 R1146: c[7,11,-1.41504] = 0
 R1147: c[7,11,-1.0] = 0
 R1148: c[7,12,0.0] + c[7,12,-3.0] + c[7,12,-2.0] + c[7,12,-1.41504]
   + c[7,12,-1.0] = 1
 R1149: - m[7,1,48] - 500 c[7,12,0.0] >= -500
 R1150: 3 m[7,0,48] - 4 m[7,0,49] - 4 m[7,0,50] + 3 m[7,0,51] + 3 m[7,1,48]
   - 4 m[7,1,49] + 3 m[7,1,50] + 3 m[7,1,51] - 500 c[7,12,0.0] >= -500
 R1151: - 3 m[7,0,48] + 3 m[7,0,49] + 3 m[7,0,50] - 3 m[7,0,51]
   + 3 m[7,1,48] + 3 m[7,1,49] - 3 m[7,1,50] - 3 m[7,1,51]
   - 500 c[7,12,0.0] >= -500
 R1152: c[7,12,-3.0] = 0
 R1153: c[7,12,-2.0] = 0
 R1154: c[7,12,-1.41504] = 0
 R1155: c[7,12,-1.0] = 0
 R1156: c[7,13,0.0] + c[7,13,-3.0] + c[7,13,-2.0] + c[7,13,-1.41504]
   + c[7,13,-1.0] = 1
 R1157: - m[7,1,52] - 500 c[7,13,0.0] >= -500
 R1158: 3 m[7,0,52] - 4 m[7,0,53] - 4 m[7,0,54] + 3 m[7,0,55] + 3 m[7,1,52]
   - 4 m[7,1,53] + 3 m[7,1,54] + 3 m[7,1,55] - 500 c[7,13,0.0] >= -500
 R1159: - 3 m[7,0,52] + 3 m[7,0,53] + 3 m[7,0,54] - 3 m[7,0,55]
   + 3 m[7,1,52] + 3 m[7,1,53] - 3 m[7,1,54] - 3 m[7,1,55]
   - 500 c[7,13,0.0] >= -500
 R1160: c[7,13,-3.0] = 0
 R1161: c[7,13,-2.0] = 0
 R1162: c[7,13,-1.41504] = 0
 R1163: c[7,13,-1.0] = 0
 R1164: c[7,14,0.0] + c[7,14,-3.0] + c[7,14,-2.0] + c[7,14,-1.41504]
   + c[7,14,-1.0] = 1
 R1165: - m[7,1,56] - 500 c[7,14,0.0] >= -500
 R1166: 3 m[7,0,56] - 4 m[7,0,57] - 4 m[7,0,58] + 3 m[7,0,59] + 3 m[7,1,56]
   - 4 m[7,1,57] + 3 m[7,1,58] + 3 m[7,1,59] - 500 c[7,14,0.0] >= -500
 R1167: - 3 m[7,0,56] + 3 m[7,0,57] + 3 m[7,0,58] - 3 m[7,0,59]
   + 3 m[7,1,56] + 3 m[7,1,57] - 3 m[7,1,58] - 3 m[7,1,59]
   - 500 c[7,14,0.0] >= -500
 R1168: c[7,14,-3.0] = 0
 R1169: c[7,14,-2.0] = 0
 R1170: c[7,14,-1.41504] = 0
 R1171: c[7,14,-1.0] = 0
 R1172: c[7,15,0.0] + c[7,15,-3.0] + c[7,15,-2.0] + c[7,15,-1.41504]
   + c[7,15,-1.0] = 1
 R1173: - m[7,1,60] - 500 c[7,15,0.0] >= -500
 R1174: 3 m[7,0,60] - 4 m[7,0,61] - 4 m[7,0,62] + 3 m[7,0,63] + 3 m[7,1,60]
   - 4 m[7,1,61] + 3 m[7,1,62] + 3 m[7,1,63] - 500 c[7,15,0.0] >= -500
 R1175: - 3 m[7,0,60] + 3 m[7,0,61] + 3 m[7,0,62] - 3 m[7,0,63]
   + 3 m[7,1,60] + 3 m[7,1,61] - 3 m[7,1,62] - 3 m[7,1,63]
   - 500 c[7,15,0.0] >= -500
 R1176: c[7,15,-3.0] = 0
 R1177: c[7,15,-2.0] = 0
 R1178: c[7,15,-1.41504] = 0
 R1179: c[7,15,-1.0] = 0
 R1180: c[8,0,0.0] + c[8,0,-3.0] + c[8,0,-2.0] + c[8,0,-1.41504]
   + c[8,0,-1.0] = 1
 R1181: - m[8,1,0] - 500 c[8,0,0.0] >= -500
 R1182: 3 m[8,0,0] - 4 m[8,0,1] - 4 m[8,0,2] + 3 m[8,0,3] + 3 m[8,1,0]
   - 4 m[8,1,1] + 3 m[8,1,2] + 3 m[8,1,3] - 500 c[8,0,0.0] >= -500
 R1183: - 3 m[8,0,0] + 3 m[8,0,1] + 3 m[8,0,2] - 3 m[8,0,3] + 3 m[8,1,0]
   + 3 m[8,1,1] - 3 m[8,1,2] - 3 m[8,1,3] - 500 c[8,0,0.0] >= -500
 R1184: c[8,0,-3.0] = 0
 R1185: c[8,0,-2.0] = 0
 R1186: c[8,0,-1.41504] = 0
 R1187: c[8,0,-1.0] = 0
 R1188: c[8,1,0.0] + c[8,1,-3.0] + c[8,1,-2.0] + c[8,1,-1.41504]
   + c[8,1,-1.0] = 1
 R1189: - m[8,1,4] - 500 c[8,1,0.0] >= -500
 R1190: 3 m[8,0,4] - 4 m[8,0,5] - 4 m[8,0,6] + 3 m[8,0,7] + 3 m[8,1,4]
   - 4 m[8,1,5] + 3 m[8,1,6] + 3 m[8,1,7] - 500 c[8,1,0.0] >= -500
 R1191: - 3 m[8,0,4] + 3 m[8,0,5] + 3 m[8,0,6] - 3 m[8,0,7] + 3 m[8,1,4]
   + 3 m[8,1,5] - 3 m[8,1,6] - 3 m[8,1,7] - 500 c[8,1,0.0] >= -500
 R1192: c[8,1,-3.0] = 0
 R1193: c[8,1,-2.0] = 0
 R1194: c[8,1,-1.41504] = 0
 R1195: c[8,1,-1.0] = 0
 R1196: c[8,2,0.0] + c[8,2,-3.0] + c[8,2,-2.0] + c[8,2,-1.41504]
   + c[8,2,-1.0] = 1
 R1197: - m[8,1,8] - 500 c[8,2,0.0] >= -500
 R1198: 3 m[8,0,8] - 4 m[8,0,9] - 4 m[8,0,10] + 3 m[8,0,11] + 3 m[8,1,8]
   - 4 m[8,1,9] + 3 m[8,1,10] + 3 m[8,1,11] - 500 c[8,2,0.0] >= -500
 R1199: - 3 m[8,0,8] + 3 m[8,0,9] + 3 m[8,0,10] - 3 m[8,0,11] + 3 m[8,1,8]
   + 3 m[8,1,9] - 3 m[8,1,10] - 3 m[8,1,11] - 500 c[8,2,0.0] >= -500
 R1200: c[8,2,-3.0] = 0
 R1201: c[8,2,-2.0] = 0
 R1202: c[8,2,-1.41504] = 0
 R1203: c[8,2,-1.0] = 0
 R1204: c[8,3,0.0] + c[8,3,-3.0] + c[8,3,-2.0] + c[8,3,-1.41504]
   + c[8,3,-1.0] = 1
 R1205: - m[8,1,12] - 500 c[8,3,0.0] >= -500
 R1206: 3 m[8,0,12] - 4 m[8,0,13] - 4 m[8,0,14] + 3 m[8,0,15] + 3 m[8,1,12]
   - 4 m[8,1,13] + 3 m[8,1,14] + 3 m[8,1,15] - 500 c[8,3,0.0] >= -500
 R1207: - 3 m[8,0,12] + 3 m[8,0,13] + 3 m[8,0,14] - 3 m[8,0,15]
   + 3 m[8,1,12] + 3 m[8,1,13] - 3 m[8,1,14] - 3 m[8,1,15] - 500 c[8,3,0.0]
   >= -500
 R1208: c[8,3,-3.0] = 0
 R1209: c[8,3,-2.0] = 0
 R1210: c[8,3,-1.41504] = 0
 R1211: c[8,3,-1.0] = 0
 R1212: c[8,4,0.0] + c[8,4,-3.0] + c[8,4,-2.0] + c[8,4,-1.41504]
   + c[8,4,-1.0] = 1
 R1213: - m[8,1,16] - 500 c[8,4,0.0] >= -500
 R1214: 3 m[8,0,16] - 4 m[8,0,17] - 4 m[8,0,18] + 3 m[8,0,19] + 3 m[8,1,16]
   - 4 m[8,1,17] + 3 m[8,1,18] + 3 m[8,1,19] - 500 c[8,4,0.0] >= -500
 R1215: - 3 m[8,0,16] + 3 m[8,0,17] + 3 m[8,0,18] - 3 m[8,0,19]
   + 3 m[8,1,16] + 3 m[8,1,17] - 3 m[8,1,18] - 3 m[8,1,19] - 500 c[8,4,0.0]
   >= -500
 R1216: c[8,4,-3.0] = 0
 R1217: c[8,4,-2.0] = 0
 R1218: c[8,4,-1.41504] = 0
 R1219: c[8,4,-1.0] = 0
 R1220: c[8,5,0.0] + c[8,5,-3.0] + c[8,5,-2.0] + c[8,5,-1.41504]
   + c[8,5,-1.0] = 1
 R1221: - m[8,1,20] - 500 c[8,5,0.0] >= -500
 R1222: 3 m[8,0,20] - 4 m[8,0,21] - 4 m[8,0,22] + 3 m[8,0,23] + 3 m[8,1,20]
   - 4 m[8,1,21] + 3 m[8,1,22] + 3 m[8,1,23] - 500 c[8,5,0.0] >= -500
 R1223: - 3 m[8,0,20] + 3 m[8,0,21] + 3 m[8,0,22] - 3 m[8,0,23]
   + 3 m[8,1,20] + 3 m[8,1,21] - 3 m[8,1,22] - 3 m[8,1,23] - 500 c[8,5,0.0]
   >= -500
 R1224: c[8,5,-3.0] = 0
 R1225: c[8,5,-2.0] = 0
 R1226: c[8,5,-1.41504] = 0
 R1227: c[8,5,-1.0] = 0
 R1228: c[8,6,0.0] + c[8,6,-3.0] + c[8,6,-2.0] + c[8,6,-1.41504]
   + c[8,6,-1.0] = 1
 R1229: c[8,6,0.0] = 0
 R1230: c[8,6,-3.0] = 0
 R1231: m[8,0,24] + m[8,0,25] - m[8,1,26] - 500 c[8,6,-2.0] >= -500
 R1232: - m[8,0,24] - m[8,0,25] - m[8,1,26] - 500 c[8,6,-2.0] >= -502
 R1233: - m[8,0,24] - m[8,0,26] - m[8,1,27] - 500 c[8,6,-2.0] >= -502
 R1234: - m[8,0,24] + m[8,0,25] + m[8,1,26] - 500 c[8,6,-2.0] >= -500
 R1235: m[8,0,24] + m[8,0,26] - m[8,1,27] - 500 c[8,6,-2.0] >= -500
 R1236: - m[8,0,24] + m[8,0,26] + m[8,1,27] - 500 c[8,6,-2.0] >= -500
 R1237: m[8,0,24] - m[8,0,26] + m[8,1,27] - 500 c[8,6,-2.0] >= -500
 R1238: m[8,0,24] - m[8,0,25] + m[8,1,26] - 500 c[8,6,-2.0] >= -500
 R1239: c[8,6,-1.41504] = 0
 R1240: c[8,6,-1.0] = 0
 R1241: c[8,7,0.0] + c[8,7,-3.0] + c[8,7,-2.0] + c[8,7,-1.41504]
   + c[8,7,-1.0] = 1
 R1242: - m[8,1,28] - 500 c[8,7,0.0] >= -500
 R1243: 3 m[8,0,28] - 4 m[8,0,29] - 4 m[8,0,30] + 3 m[8,0,31] + 3 m[8,1,28]
   - 4 m[8,1,29] + 3 m[8,1,30] + 3 m[8,1,31] - 500 c[8,7,0.0] >= -500
 R1244: - 3 m[8,0,28] + 3 m[8,0,29] + 3 m[8,0,30] - 3 m[8,0,31]
   + 3 m[8,1,28] + 3 m[8,1,29] - 3 m[8,1,30] - 3 m[8,1,31] - 500 c[8,7,0.0]
   >= -500
 R1245: c[8,7,-3.0] = 0
 R1246: c[8,7,-2.0] = 0
 R1247: c[8,7,-1.41504] = 0
 R1248: c[8,7,-1.0] = 0
 R1249: c[8,8,0.0] + c[8,8,-3.0] + c[8,8,-2.0] + c[8,8,-1.41504]
   + c[8,8,-1.0] = 1
 R1250: - m[8,1,32] - 500 c[8,8,0.0] >= -500
 R1251: 3 m[8,0,32] - 4 m[8,0,33] - 4 m[8,0,34] + 3 m[8,0,35] + 3 m[8,1,32]
   - 4 m[8,1,33] + 3 m[8,1,34] + 3 m[8,1,35] - 500 c[8,8,0.0] >= -500
 R1252: - 3 m[8,0,32] + 3 m[8,0,33] + 3 m[8,0,34] - 3 m[8,0,35]
   + 3 m[8,1,32] + 3 m[8,1,33] - 3 m[8,1,34] - 3 m[8,1,35] - 500 c[8,8,0.0]
   >= -500
 R1253: c[8,8,-3.0] = 0
 R1254: c[8,8,-2.0] = 0
 R1255: c[8,8,-1.41504] = 0
 R1256: c[8,8,-1.0] = 0
 R1257: c[8,9,0.0] + c[8,9,-3.0] + c[8,9,-2.0] + c[8,9,-1.41504]
   + c[8,9,-1.0] = 1
 R1258: - m[8,1,36] - 500 c[8,9,0.0] >= -500
 R1259: 3 m[8,0,36] - 4 m[8,0,37] - 4 m[8,0,38] + 3 m[8,0,39] + 3 m[8,1,36]
   - 4 m[8,1,37] + 3 m[8,1,38] + 3 m[8,1,39] - 500 c[8,9,0.0] >= -500
 R1260: - 3 m[8,0,36] + 3 m[8,0,37] + 3 m[8,0,38] - 3 m[8,0,39]
   + 3 m[8,1,36] + 3 m[8,1,37] - 3 m[8,1,38] - 3 m[8,1,39] - 500 c[8,9,0.0]
   >= -500
 R1261: c[8,9,-3.0] = 0
 R1262: c[8,9,-2.0] = 0
 R1263: c[8,9,-1.41504] = 0
 R1264: c[8,9,-1.0] = 0
 R1265: c[8,10,0.0] + c[8,10,-3.0] + c[8,10,-2.0] + c[8,10,-1.41504]
   + c[8,10,-1.0] = 1
 R1266: c[8,10,0.0] = 0
 R1267: - m[8,0,41] - m[8,1,42] - m[8,1,43] - 500 c[8,10,-3.0] >= -502
 R1268: m[8,0,41] - m[8,1,42] + m[8,1,43] - 500 c[8,10,-3.0] >= -500
 R1269: m[8,0,41] + m[8,1,42] - m[8,1,43] - 500 c[8,10,-3.0] >= -500
 R1270: - m[8,0,41] + m[8,1,42] + m[8,1,43] - 500 c[8,10,-3.0] >= -500
 R1271: c[8,10,-2.0] = 0
 R1272: c[8,10,-1.41504] = 0
 R1273: c[8,10,-1.0] = 0
 R1274: c[8,11,0.0] + c[8,11,-3.0] + c[8,11,-2.0] + c[8,11,-1.41504]
   + c[8,11,-1.0] = 1
 R1275: - m[8,1,44] - 500 c[8,11,0.0] >= -500
 R1276: 3 m[8,0,44] - 4 m[8,0,45] - 4 m[8,0,46] + 3 m[8,0,47] + 3 m[8,1,44]
   - 4 m[8,1,45] + 3 m[8,1,46] + 3 m[8,1,47] - 500 c[8,11,0.0] >= -500
 R1277: - 3 m[8,0,44] + 3 m[8,0,45] + 3 m[8,0,46] - 3 m[8,0,47]
   + 3 m[8,1,44] + 3 m[8,1,45] - 3 m[8,1,46] - 3 m[8,1,47]
   - 500 c[8,11,0.0] >= -500
 R1278: c[8,11,-3.0] = 0
 R1279: c[8,11,-2.0] = 0
 R1280: c[8,11,-1.41504] = 0
 R1281: c[8,11,-1.0] = 0
 R1282: c[8,12,0.0] + c[8,12,-3.0] + c[8,12,-2.0] + c[8,12,-1.41504]
   + c[8,12,-1.0] = 1
 R1283: - m[8,1,48] - 500 c[8,12,0.0] >= -500
 R1284: 3 m[8,0,48] - 4 m[8,0,49] - 4 m[8,0,50] + 3 m[8,0,51] + 3 m[8,1,48]
   - 4 m[8,1,49] + 3 m[8,1,50] + 3 m[8,1,51] - 500 c[8,12,0.0] >= -500
 R1285: - 3 m[8,0,48] + 3 m[8,0,49] + 3 m[8,0,50] - 3 m[8,0,51]
   + 3 m[8,1,48] + 3 m[8,1,49] - 3 m[8,1,50] - 3 m[8,1,51]
   - 500 c[8,12,0.0] >= -500
 R1286: c[8,12,-3.0] = 0
 R1287: c[8,12,-2.0] = 0
 R1288: c[8,12,-1.41504] = 0
 R1289: c[8,12,-1.0] = 0
 R1290: c[8,13,0.0] + c[8,13,-3.0] + c[8,13,-2.0] + c[8,13,-1.41504]
   + c[8,13,-1.0] = 1
 R1291: - m[8,1,52] - 500 c[8,13,0.0] >= -500
 R1292: 3 m[8,0,52] - 4 m[8,0,53] - 4 m[8,0,54] + 3 m[8,0,55] + 3 m[8,1,52]
   - 4 m[8,1,53] + 3 m[8,1,54] + 3 m[8,1,55] - 500 c[8,13,0.0] >= -500
 R1293: - 3 m[8,0,52] + 3 m[8,0,53] + 3 m[8,0,54] - 3 m[8,0,55]
   + 3 m[8,1,52] + 3 m[8,1,53] - 3 m[8,1,54] - 3 m[8,1,55]
   - 500 c[8,13,0.0] >= -500
 R1294: c[8,13,-3.0] = 0
 R1295: c[8,13,-2.0] = 0
 R1296: c[8,13,-1.41504] = 0
 R1297: c[8,13,-1.0] = 0
 R1298: c[8,14,0.0] + c[8,14,-3.0] + c[8,14,-2.0] + c[8,14,-1.41504]
   + c[8,14,-1.0] = 1
 R1299: c[8,14,0.0] = 0
 R1300: c[8,14,-3.0] = 0
 R1301: m[8,0,56] + m[8,0,57] - m[8,1,58] - 500 c[8,14,-2.0] >= -500
 R1302: - m[8,0,56] - m[8,0,57] - m[8,1,58] - 500 c[8,14,-2.0] >= -502
 R1303: - m[8,0,56] - m[8,0,58] - m[8,1,59] - 500 c[8,14,-2.0] >= -502
 R1304: - m[8,0,56] + m[8,0,57] + m[8,1,58] - 500 c[8,14,-2.0] >= -500
 R1305: m[8,0,56] + m[8,0,58] - m[8,1,59] - 500 c[8,14,-2.0] >= -500
 R1306: - m[8,0,56] + m[8,0,58] + m[8,1,59] - 500 c[8,14,-2.0] >= -500
 R1307: m[8,0,56] - m[8,0,58] + m[8,1,59] - 500 c[8,14,-2.0] >= -500
 R1308: m[8,0,56] - m[8,0,57] + m[8,1,58] - 500 c[8,14,-2.0] >= -500
 R1309: c[8,14,-1.41504] = 0
 R1310: c[8,14,-1.0] = 0
 R1311: c[8,15,0.0] + c[8,15,-3.0] + c[8,15,-2.0] + c[8,15,-1.41504]
   + c[8,15,-1.0] = 1
 R1312: - m[8,1,60] - 500 c[8,15,0.0] >= -500
 R1313: 3 m[8,0,60] - 4 m[8,0,61] - 4 m[8,0,62] + 3 m[8,0,63] + 3 m[8,1,60]
   - 4 m[8,1,61] + 3 m[8,1,62] + 3 m[8,1,63] - 500 c[8,15,0.0] >= -500
 R1314: - 3 m[8,0,60] + 3 m[8,0,61] + 3 m[8,0,62] - 3 m[8,0,63]
   + 3 m[8,1,60] + 3 m[8,1,61] - 3 m[8,1,62] - 3 m[8,1,63]
   - 500 c[8,15,0.0] >= -500
 R1315: c[8,15,-3.0] = 0
 R1316: c[8,15,-2.0] = 0
 R1317: c[8,15,-1.41504] = 0
 R1318: c[8,15,-1.0] = 0
 R1319: c[9,0,0.0] + c[9,0,-3.0] + c[9,0,-2.0] + c[9,0,-1.41504]
   + c[9,0,-1.0] = 1
 R1320: c[9,0,0.0] = 0
 R1321: c[9,0,-3.0] = 0
 R1322: - m[9,0,2] - m[9,1,1] - m[9,1,3] - 500 c[9,0,-2.0] >= -502
 R1323: m[9,0,2] - m[9,1,1] + m[9,1,3] - 500 c[9,0,-2.0] >= -500
 R1324: m[9,0,1] + m[9,0,2] - m[9,1,2] - 500 c[9,0,-2.0] >= -500
 R1325: m[9,0,2] + m[9,1,1] - m[9,1,3] - 500 c[9,0,-2.0] >= -500
 R1326: - m[9,0,1] - m[9,0,2] - m[9,1,2] - 500 c[9,0,-2.0] >= -502
 R1327: - m[9,0,1] + m[9,0,2] + m[9,1,2] - 500 c[9,0,-2.0] >= -500
 R1328: - m[9,0,2] + m[9,1,1] + m[9,1,3] - 500 c[9,0,-2.0] >= -500
 R1329: m[9,0,1] - m[9,0,2] + m[9,1,2] - 500 c[9,0,-2.0] >= -500
 R1330: c[9,0,-1.41504] = 0
 R1331: c[9,0,-1.0] = 0
 R1332: c[9,1,0.0] + c[9,1,-3.0] + c[9,1,-2.0] + c[9,1,-1.41504]
   + c[9,1,-1.0] = 1
 R1333: c[9,1,0.0] = 0
 R1334: m[9,0,7] - m[9,1,4] - 500 c[9,1,-3.0] >= -500
 R1335: - m[9,0,7] + m[9,1,4] - 500 c[9,1,-3.0] >= -500
 R1336: c[9,1,-2.0] = 0
 R1337: c[9,1,-1.41504] = 0
 R1338: c[9,1,-1.0] = 0
 R1339: c[9,2,0.0] + c[9,2,-3.0] + c[9,2,-2.0] + c[9,2,-1.41504]
   + c[9,2,-1.0] = 1
 R1340: c[9,2,0.0] = 0
 R1341: - m[9,0,11] - m[9,1,9] - m[9,1,11] - 500 c[9,2,-3.0] >= -502
 R1342: m[9,0,11] - m[9,1,9] + m[9,1,11] - 500 c[9,2,-3.0] >= -500
 R1343: m[9,0,11] + m[9,1,9] - m[9,1,11] - 500 c[9,2,-3.0] >= -500
 R1344: - m[9,0,11] + m[9,1,9] + m[9,1,11] - 500 c[9,2,-3.0] >= -500
 R1345: c[9,2,-2.0] = 0
 R1346: c[9,2,-1.41504] = 0
 R1347: c[9,2,-1.0] = 0
 R1348: c[9,3,0.0] + c[9,3,-3.0] + c[9,3,-2.0] + c[9,3,-1.41504]
   + c[9,3,-1.0] = 1
 R1349: c[9,3,0.0] = 0
 R1350: m[9,0,15] - m[9,1,12] - 500 c[9,3,-3.0] >= -500
 R1351: - m[9,0,15] + m[9,1,12] - 500 c[9,3,-3.0] >= -500
 R1352: c[9,3,-2.0] = 0
 R1353: c[9,3,-1.41504] = 0
 R1354: c[9,3,-1.0] = 0
 R1355: c[9,4,0.0] + c[9,4,-3.0] + c[9,4,-2.0] + c[9,4,-1.41504]
   + c[9,4,-1.0] = 1
 R1356: - m[9,1,16] - 500 c[9,4,0.0] >= -500
 R1357: 3 m[9,0,16] - 4 m[9,0,17] - 4 m[9,0,18] + 3 m[9,0,19] + 3 m[9,1,16]
   - 4 m[9,1,17] + 3 m[9,1,18] + 3 m[9,1,19] - 500 c[9,4,0.0] >= -500
 R1358: - 3 m[9,0,16] + 3 m[9,0,17] + 3 m[9,0,18] - 3 m[9,0,19]
   + 3 m[9,1,16] + 3 m[9,1,17] - 3 m[9,1,18] - 3 m[9,1,19] - 500 c[9,4,0.0]
   >= -500
 R1359: c[9,4,-3.0] = 0
 R1360: c[9,4,-2.0] = 0
 R1361: c[9,4,-1.41504] = 0
 R1362: c[9,4,-1.0] = 0
 R1363: c[9,5,0.0] + c[9,5,-3.0] + c[9,5,-2.0] + c[9,5,-1.41504]
   + c[9,5,-1.0] = 1
 R1364: - m[9,1,20] - 500 c[9,5,0.0] >= -500
 R1365: 3 m[9,0,20] - 4 m[9,0,21] - 4 m[9,0,22] + 3 m[9,0,23] + 3 m[9,1,20]
   - 4 m[9,1,21] + 3 m[9,1,22] + 3 m[9,1,23] - 500 c[9,5,0.0] >= -500
 R1366: - 3 m[9,0,20] + 3 m[9,0,21] + 3 m[9,0,22] - 3 m[9,0,23]
   + 3 m[9,1,20] + 3 m[9,1,21] - 3 m[9,1,22] - 3 m[9,1,23] - 500 c[9,5,0.0]
   >= -500
 R1367: c[9,5,-3.0] = 0
 R1368: c[9,5,-2.0] = 0
 R1369: c[9,5,-1.41504] = 0
 R1370: c[9,5,-1.0] = 0
 R1371: c[9,6,0.0] + c[9,6,-3.0] + c[9,6,-2.0] + c[9,6,-1.41504]
   + c[9,6,-1.0] = 1
 R1372: - m[9,1,24] - 500 c[9,6,0.0] >= -500
 R1373: 3 m[9,0,24] - 4 m[9,0,25] - 4 m[9,0,26] + 3 m[9,0,27] + 3 m[9,1,24]
   - 4 m[9,1,25] + 3 m[9,1,26] + 3 m[9,1,27] - 500 c[9,6,0.0] >= -500
 R1374: - 3 m[9,0,24] + 3 m[9,0,25] + 3 m[9,0,26] - 3 m[9,0,27]
   + 3 m[9,1,24] + 3 m[9,1,25] - 3 m[9,1,26] - 3 m[9,1,27] - 500 c[9,6,0.0]
   >= -500
 R1375: c[9,6,-3.0] = 0
 R1376: c[9,6,-2.0] = 0
 R1377: c[9,6,-1.41504] = 0
 R1378: c[9,6,-1.0] = 0
 R1379: c[9,7,0.0] + c[9,7,-3.0] + c[9,7,-2.0] + c[9,7,-1.41504]
   + c[9,7,-1.0] = 1
 R1380: - m[9,1,28] - 500 c[9,7,0.0] >= -500
 R1381: 3 m[9,0,28] - 4 m[9,0,29] - 4 m[9,0,30] + 3 m[9,0,31] + 3 m[9,1,28]
   - 4 m[9,1,29] + 3 m[9,1,30] + 3 m[9,1,31] - 500 c[9,7,0.0] >= -500
 R1382: - 3 m[9,0,28] + 3 m[9,0,29] + 3 m[9,0,30] - 3 m[9,0,31]
   + 3 m[9,1,28] + 3 m[9,1,29] - 3 m[9,1,30] - 3 m[9,1,31] - 500 c[9,7,0.0]
   >= -500
 R1383: c[9,7,-3.0] = 0
 R1384: c[9,7,-2.0] = 0
 R1385: c[9,7,-1.41504] = 0
 R1386: c[9,7,-1.0] = 0
 R1387: c[9,8,0.0] + c[9,8,-3.0] + c[9,8,-2.0] + c[9,8,-1.41504]
   + c[9,8,-1.0] = 1
 R1388: - m[9,1,32] - 500 c[9,8,0.0] >= -500
 R1389: 3 m[9,0,32] - 4 m[9,0,33] - 4 m[9,0,34] + 3 m[9,0,35] + 3 m[9,1,32]
   - 4 m[9,1,33] + 3 m[9,1,34] + 3 m[9,1,35] - 500 c[9,8,0.0] >= -500
 R1390: - 3 m[9,0,32] + 3 m[9,0,33] + 3 m[9,0,34] - 3 m[9,0,35]
   + 3 m[9,1,32] + 3 m[9,1,33] - 3 m[9,1,34] - 3 m[9,1,35] - 500 c[9,8,0.0]
   >= -500
 R1391: c[9,8,-3.0] = 0
 R1392: c[9,8,-2.0] = 0
 R1393: c[9,8,-1.41504] = 0
 R1394: c[9,8,-1.0] = 0
 R1395: c[9,9,0.0] + c[9,9,-3.0] + c[9,9,-2.0] + c[9,9,-1.41504]
   + c[9,9,-1.0] = 1
 R1396: - m[9,1,36] - 500 c[9,9,0.0] >= -500
 R1397: 3 m[9,0,36] - 4 m[9,0,37] - 4 m[9,0,38] + 3 m[9,0,39] + 3 m[9,1,36]
   - 4 m[9,1,37] + 3 m[9,1,38] + 3 m[9,1,39] - 500 c[9,9,0.0] >= -500
 R1398: - 3 m[9,0,36] + 3 m[9,0,37] + 3 m[9,0,38] - 3 m[9,0,39]
   + 3 m[9,1,36] + 3 m[9,1,37] - 3 m[9,1,38] - 3 m[9,1,39] - 500 c[9,9,0.0]
   >= -500
 R1399: c[9,9,-3.0] = 0
 R1400: c[9,9,-2.0] = 0
 R1401: c[9,9,-1.41504] = 0
 R1402: c[9,9,-1.0] = 0
 R1403: c[9,10,0.0] + c[9,10,-3.0] + c[9,10,-2.0] + c[9,10,-1.41504]
   + c[9,10,-1.0] = 1
 R1404: - m[9,1,40] - 500 c[9,10,0.0] >= -500
 R1405: 3 m[9,0,40] - 4 m[9,0,41] - 4 m[9,0,42] + 3 m[9,0,43] + 3 m[9,1,40]
   - 4 m[9,1,41] + 3 m[9,1,42] + 3 m[9,1,43] - 500 c[9,10,0.0] >= -500
 R1406: - 3 m[9,0,40] + 3 m[9,0,41] + 3 m[9,0,42] - 3 m[9,0,43]
   + 3 m[9,1,40] + 3 m[9,1,41] - 3 m[9,1,42] - 3 m[9,1,43]
   - 500 c[9,10,0.0] >= -500
 R1407: c[9,10,-3.0] = 0
 R1408: c[9,10,-2.0] = 0
 R1409: c[9,10,-1.41504] = 0
 R1410: c[9,10,-1.0] = 0
 R1411: c[9,11,0.0] + c[9,11,-3.0] + c[9,11,-2.0] + c[9,11,-1.41504]
   + c[9,11,-1.0] = 1
 R1412: - m[9,1,44] - 500 c[9,11,0.0] >= -500
 R1413: 3 m[9,0,44] - 4 m[9,0,45] - 4 m[9,0,46] + 3 m[9,0,47] + 3 m[9,1,44]
   - 4 m[9,1,45] + 3 m[9,1,46] + 3 m[9,1,47] - 500 c[9,11,0.0] >= -500
 R1414: - 3 m[9,0,44] + 3 m[9,0,45] + 3 m[9,0,46] - 3 m[9,0,47]
   + 3 m[9,1,44] + 3 m[9,1,45] - 3 m[9,1,46] - 3 m[9,1,47]
   - 500 c[9,11,0.0] >= -500
 R1415: c[9,11,-3.0] = 0
 R1416: c[9,11,-2.0] = 0
 R1417: c[9,11,-1.41504] = 0
 R1418: c[9,11,-1.0] = 0
 R1419: c[9,12,0.0] + c[9,12,-3.0] + c[9,12,-2.0] + c[9,12,-1.41504]
   + c[9,12,-1.0] = 1
 R1420: - m[9,1,48] - 500 c[9,12,0.0] >= -500
 R1421: 3 m[9,0,48] - 4 m[9,0,49] - 4 m[9,0,50] + 3 m[9,0,51] + 3 m[9,1,48]
   - 4 m[9,1,49] + 3 m[9,1,50] + 3 m[9,1,51] - 500 c[9,12,0.0] >= -500
 R1422: - 3 m[9,0,48] + 3 m[9,0,49] + 3 m[9,0,50] - 3 m[9,0,51]
   + 3 m[9,1,48] + 3 m[9,1,49] - 3 m[9,1,50] - 3 m[9,1,51]
   - 500 c[9,12,0.0] >= -500
 R1423: c[9,12,-3.0] = 0
 R1424: c[9,12,-2.0] = 0
 R1425: c[9,12,-1.41504] = 0
 R1426: c[9,12,-1.0] = 0
 R1427: c[9,13,0.0] + c[9,13,-3.0] + c[9,13,-2.0] + c[9,13,-1.41504]
   + c[9,13,-1.0] = 1
 R1428: - m[9,1,52] - 500 c[9,13,0.0] >= -500
 R1429: 3 m[9,0,52] - 4 m[9,0,53] - 4 m[9,0,54] + 3 m[9,0,55] + 3 m[9,1,52]
   - 4 m[9,1,53] + 3 m[9,1,54] + 3 m[9,1,55] - 500 c[9,13,0.0] >= -500
 R1430: - 3 m[9,0,52] + 3 m[9,0,53] + 3 m[9,0,54] - 3 m[9,0,55]
   + 3 m[9,1,52] + 3 m[9,1,53] - 3 m[9,1,54] - 3 m[9,1,55]
   - 500 c[9,13,0.0] >= -500
 R1431: c[9,13,-3.0] = 0
 R1432: c[9,13,-2.0] = 0
 R1433: c[9,13,-1.41504] = 0
 R1434: c[9,13,-1.0] = 0
 R1435: c[9,14,0.0] + c[9,14,-3.0] + c[9,14,-2.0] + c[9,14,-1.41504]
   + c[9,14,-1.0] = 1
 R1436: - m[9,1,56] - 500 c[9,14,0.0] >= -500
 R1437: 3 m[9,0,56] - 4 m[9,0,57] - 4 m[9,0,58] + 3 m[9,0,59] + 3 m[9,1,56]
   - 4 m[9,1,57] + 3 m[9,1,58] + 3 m[9,1,59] - 500 c[9,14,0.0] >= -500
 R1438: - 3 m[9,0,56] + 3 m[9,0,57] + 3 m[9,0,58] - 3 m[9,0,59]
   + 3 m[9,1,56] + 3 m[9,1,57] - 3 m[9,1,58] - 3 m[9,1,59]
   - 500 c[9,14,0.0] >= -500
 R1439: c[9,14,-3.0] = 0
 R1440: c[9,14,-2.0] = 0
 R1441: c[9,14,-1.41504] = 0
 R1442: c[9,14,-1.0] = 0
 R1443: c[9,15,0.0] + c[9,15,-3.0] + c[9,15,-2.0] + c[9,15,-1.41504]
   + c[9,15,-1.0] = 1
 R1444: - m[9,1,60] - 500 c[9,15,0.0] >= -500
 R1445: 3 m[9,0,60] - 4 m[9,0,61] - 4 m[9,0,62] + 3 m[9,0,63] + 3 m[9,1,60]
   - 4 m[9,1,61] + 3 m[9,1,62] + 3 m[9,1,63] - 500 c[9,15,0.0] >= -500
 R1446: - 3 m[9,0,60] + 3 m[9,0,61] + 3 m[9,0,62] - 3 m[9,0,63]
   + 3 m[9,1,60] + 3 m[9,1,61] - 3 m[9,1,62] - 3 m[9,1,63]
   - 500 c[9,15,0.0] >= -500
 R1447: c[9,15,-3.0] = 0
 R1448: c[9,15,-2.0] = 0
 R1449: c[9,15,-1.41504] = 0
 R1450: c[9,15,-1.0] = 0
 R1451: c[10,0,0.0] + c[10,0,-3.0] + c[10,0,-2.0] + c[10,0,-1.41504]
   + c[10,0,-1.0] = 1
 R1452: c[10,0,0.0] = 0
 R1453: - m[10,0,0] - m[10,0,1] + m[10,0,3] - m[10,1,2] - 500 c[10,0,-3.0]
   >= -502
 R1454: - m[10,0,0] + m[10,0,1] - m[10,0,3] - m[10,1,2] - 500 c[10,0,-3.0]
   >= -502
 R1455: m[10,0,0] - m[10,0,1] - m[10,0,3] - m[10,1,2] - 500 c[10,0,-3.0]
   >= -502
 R1456: - m[10,0,0] - m[10,0,1] - m[10,0,3] + m[10,1,2] - 500 c[10,0,-3.0]
   >= -502
 R1457: m[10,0,0] - m[10,0,1] + m[10,0,3] + m[10,1,2] - 500 c[10,0,-3.0]
   >= -500
 R1458: m[10,0,0] + m[10,0,1] - m[10,0,3] + m[10,1,2] - 500 c[10,0,-3.0]
   >= -500
 R1459: - m[10,0,0] + m[10,0,1] + m[10,0,3] + m[10,1,2] - 500 c[10,0,-3.0]
   >= -500
 R1460: m[10,0,0] + m[10,0,1] + m[10,0,3] - m[10,1,2] - 500 c[10,0,-3.0]
   >= -500
 R1461: c[10,0,-2.0] = 0
 R1462: c[10,0,-1.41504] = 0
 R1463: c[10,0,-1.0] = 0
 R1464: c[10,1,0.0] + c[10,1,-3.0] + c[10,1,-2.0] + c[10,1,-1.41504]
   + c[10,1,-1.0] = 1
 R1465: - m[10,1,4] - 500 c[10,1,0.0] >= -500
 R1466: 3 m[10,0,4] - 4 m[10,0,5] - 4 m[10,0,6] + 3 m[10,0,7] + 3 m[10,1,4]
   - 4 m[10,1,5] + 3 m[10,1,6] + 3 m[10,1,7] - 500 c[10,1,0.0] >= -500
 R1467: - 3 m[10,0,4] + 3 m[10,0,5] + 3 m[10,0,6] - 3 m[10,0,7]
   + 3 m[10,1,4] + 3 m[10,1,5] - 3 m[10,1,6] - 3 m[10,1,7]
   - 500 c[10,1,0.0] >= -500
 R1468: c[10,1,-3.0] = 0
 R1469: c[10,1,-2.0] = 0
 R1470: c[10,1,-1.41504] = 0
 R1471: c[10,1,-1.0] = 0
 R1472: c[10,2,0.0] + c[10,2,-3.0] + c[10,2,-2.0] + c[10,2,-1.41504]
   + c[10,2,-1.0] = 1
 R1473: - m[10,1,8] - 500 c[10,2,0.0] >= -500
 R1474: 3 m[10,0,8] - 4 m[10,0,9] - 4 m[10,0,10] + 3 m[10,0,11]
   + 3 m[10,1,8] - 4 m[10,1,9] + 3 m[10,1,10] + 3 m[10,1,11]
   - 500 c[10,2,0.0] >= -500
 R1475: - 3 m[10,0,8] + 3 m[10,0,9] + 3 m[10,0,10] - 3 m[10,0,11]
   + 3 m[10,1,8] + 3 m[10,1,9] - 3 m[10,1,10] - 3 m[10,1,11]
   - 500 c[10,2,0.0] >= -500
 R1476: c[10,2,-3.0] = 0
 R1477: c[10,2,-2.0] = 0
 R1478: c[10,2,-1.41504] = 0
 R1479: c[10,2,-1.0] = 0
 R1480: c[10,3,0.0] + c[10,3,-3.0] + c[10,3,-2.0] + c[10,3,-1.41504]
   + c[10,3,-1.0] = 1
 R1481: - m[10,1,12] - 500 c[10,3,0.0] >= -500
 R1482: 3 m[10,0,12] - 4 m[10,0,13] - 4 m[10,0,14] + 3 m[10,0,15]
   + 3 m[10,1,12] - 4 m[10,1,13] + 3 m[10,1,14] + 3 m[10,1,15]
   - 500 c[10,3,0.0] >= -500
 R1483: - 3 m[10,0,12] + 3 m[10,0,13] + 3 m[10,0,14] - 3 m[10,0,15]
   + 3 m[10,1,12] + 3 m[10,1,13] - 3 m[10,1,14] - 3 m[10,1,15]
   - 500 c[10,3,0.0] >= -500
 R1484: c[10,3,-3.0] = 0
 R1485: c[10,3,-2.0] = 0
 R1486: c[10,3,-1.41504] = 0
 R1487: c[10,3,-1.0] = 0
 R1488: c[10,4,0.0] + c[10,4,-3.0] + c[10,4,-2.0] + c[10,4,-1.41504]
   + c[10,4,-1.0] = 1
 R1489: - m[10,1,16] - 500 c[10,4,0.0] >= -500
 R1490: 3 m[10,0,16] - 4 m[10,0,17] - 4 m[10,0,18] + 3 m[10,0,19]
   + 3 m[10,1,16] - 4 m[10,1,17] + 3 m[10,1,18] + 3 m[10,1,19]
   - 500 c[10,4,0.0] >= -500
 R1491: - 3 m[10,0,16] + 3 m[10,0,17] + 3 m[10,0,18] - 3 m[10,0,19]
   + 3 m[10,1,16] + 3 m[10,1,17] - 3 m[10,1,18] - 3 m[10,1,19]
   - 500 c[10,4,0.0] >= -500
 R1492: c[10,4,-3.0] = 0
 R1493: c[10,4,-2.0] = 0
 R1494: c[10,4,-1.41504] = 0
 R1495: c[10,4,-1.0] = 0
 R1496: c[10,5,0.0] + c[10,5,-3.0] + c[10,5,-2.0] + c[10,5,-1.41504]
   + c[10,5,-1.0] = 1
 R1497: - m[10,1,20] - 500 c[10,5,0.0] >= -500
 R1498: 3 m[10,0,20] - 4 m[10,0,21] - 4 m[10,0,22] + 3 m[10,0,23]
   + 3 m[10,1,20] - 4 m[10,1,21] + 3 m[10,1,22] + 3 m[10,1,23]
   - 500 c[10,5,0.0] >= -500
 R1499: - 3 m[10,0,20] + 3 m[10,0,21] + 3 m[10,0,22] - 3 m[10,0,23]
   + 3 m[10,1,20] + 3 m[10,1,21] - 3 m[10,1,22] - 3 m[10,1,23]
   - 500 c[10,5,0.0] >= -500
 R1500: c[10,5,-3.0] = 0
 R1501: c[10,5,-2.0] = 0
 R1502: c[10,5,-1.41504] = 0
 R1503: c[10,5,-1.0] = 0
 R1504: c[10,6,0.0] + c[10,6,-3.0] + c[10,6,-2.0] + c[10,6,-1.41504]
   + c[10,6,-1.0] = 1
 R1505: - m[10,1,24] - 500 c[10,6,0.0] >= -500
 R1506: 3 m[10,0,24] - 4 m[10,0,25] - 4 m[10,0,26] + 3 m[10,0,27]
   + 3 m[10,1,24] - 4 m[10,1,25] + 3 m[10,1,26] + 3 m[10,1,27]
   - 500 c[10,6,0.0] >= -500
 R1507: - 3 m[10,0,24] + 3 m[10,0,25] + 3 m[10,0,26] - 3 m[10,0,27]
   + 3 m[10,1,24] + 3 m[10,1,25] - 3 m[10,1,26] - 3 m[10,1,27]
   - 500 c[10,6,0.0] >= -500
 R1508: c[10,6,-3.0] = 0
 R1509: c[10,6,-2.0] = 0
 R1510: c[10,6,-1.41504] = 0
 R1511: c[10,6,-1.0] = 0
 R1512: c[10,7,0.0] + c[10,7,-3.0] + c[10,7,-2.0] + c[10,7,-1.41504]
   + c[10,7,-1.0] = 1
 R1513: - m[10,1,28] - 500 c[10,7,0.0] >= -500
 R1514: 3 m[10,0,28] - 4 m[10,0,29] - 4 m[10,0,30] + 3 m[10,0,31]
   + 3 m[10,1,28] - 4 m[10,1,29] + 3 m[10,1,30] + 3 m[10,1,31]
   - 500 c[10,7,0.0] >= -500
 R1515: - 3 m[10,0,28] + 3 m[10,0,29] + 3 m[10,0,30] - 3 m[10,0,31]
   + 3 m[10,1,28] + 3 m[10,1,29] - 3 m[10,1,30] - 3 m[10,1,31]
   - 500 c[10,7,0.0] >= -500
 R1516: c[10,7,-3.0] = 0
 R1517: c[10,7,-2.0] = 0
 R1518: c[10,7,-1.41504] = 0
 R1519: c[10,7,-1.0] = 0
 R1520: c[10,8,0.0] + c[10,8,-3.0] + c[10,8,-2.0] + c[10,8,-1.41504]
   + c[10,8,-1.0] = 1
 R1521: c[10,8,0.0] = 0
 R1522: - m[10,0,32] - m[10,0,33] + m[10,0,35] - m[10,1,34]
   - 500 c[10,8,-3.0] >= -502
 R1523: - m[10,0,32] + m[10,0,33] - m[10,0,35] - m[10,1,34]
   - 500 c[10,8,-3.0] >= -502
 R1524: m[10,0,32] - m[10,0,33] - m[10,0,35] - m[10,1,34]
   - 500 c[10,8,-3.0] >= -502
 R1525: - m[10,0,32] - m[10,0,33] - m[10,0,35] + m[10,1,34]
   - 500 c[10,8,-3.0] >= -502
 R1526: m[10,0,32] - m[10,0,33] + m[10,0,35] + m[10,1,34]
   - 500 c[10,8,-3.0] >= -500
 R1527: m[10,0,32] + m[10,0,33] - m[10,0,35] + m[10,1,34]
   - 500 c[10,8,-3.0] >= -500
 R1528: - m[10,0,32] + m[10,0,33] + m[10,0,35] + m[10,1,34]
   - 500 c[10,8,-3.0] >= -500
 R1529: m[10,0,32] + m[10,0,33] + m[10,0,35] - m[10,1,34]
   - 500 c[10,8,-3.0] >= -500
 R1530: c[10,8,-2.0] = 0
 R1531: c[10,8,-1.41504] = 0
 R1532: c[10,8,-1.0] = 0
 R1533: c[10,9,0.0] + c[10,9,-3.0] + c[10,9,-2.0] + c[10,9,-1.41504]
   + c[10,9,-1.0] = 1
 R1534: - m[10,1,36] - 500 c[10,9,0.0] >= -500
 R1535: 3 m[10,0,36] - 4 m[10,0,37] - 4 m[10,0,38] + 3 m[10,0,39]
   + 3 m[10,1,36] - 4 m[10,1,37] + 3 m[10,1,38] + 3 m[10,1,39]
   - 500 c[10,9,0.0] >= -500
 R1536: - 3 m[10,0,36] + 3 m[10,0,37] + 3 m[10,0,38] - 3 m[10,0,39]
   + 3 m[10,1,36] + 3 m[10,1,37] - 3 m[10,1,38] - 3 m[10,1,39]
   - 500 c[10,9,0.0] >= -500
 R1537: c[10,9,-3.0] = 0
 R1538: c[10,9,-2.0] = 0
 R1539: c[10,9,-1.41504] = 0
 R1540: c[10,9,-1.0] = 0
 R1541: c[10,10,0.0] + c[10,10,-3.0] + c[10,10,-2.0] + c[10,10,-1.41504]
   + c[10,10,-1.0] = 1
 R1542: - m[10,1,40] - 500 c[10,10,0.0] >= -500
 R1543: 3 m[10,0,40] - 4 m[10,0,41] - 4 m[10,0,42] + 3 m[10,0,43]
   + 3 m[10,1,40] - 4 m[10,1,41] + 3 m[10,1,42] + 3 m[10,1,43]
   - 500 c[10,10,0.0] >= -500
 R1544: - 3 m[10,0,40] + 3 m[10,0,41] + 3 m[10,0,42] - 3 m[10,0,43]
   + 3 m[10,1,40] + 3 m[10,1,41] - 3 m[10,1,42] - 3 m[10,1,43]
   - 500 c[10,10,0.0] >= -500
 R1545: c[10,10,-3.0] = 0
 R1546: c[10,10,-2.0] = 0
 R1547: c[10,10,-1.41504] = 0
 R1548: c[10,10,-1.0] = 0
 R1549: c[10,11,0.0] + c[10,11,-3.0] + c[10,11,-2.0] + c[10,11,-1.41504]
   + c[10,11,-1.0] = 1
 R1550: - m[10,1,44] - 500 c[10,11,0.0] >= -500
 R1551: 3 m[10,0,44] - 4 m[10,0,45] - 4 m[10,0,46] + 3 m[10,0,47]
   + 3 m[10,1,44] - 4 m[10,1,45] + 3 m[10,1,46] + 3 m[10,1,47]
   - 500 c[10,11,0.0] >= -500
 R1552: - 3 m[10,0,44] + 3 m[10,0,45] + 3 m[10,0,46] - 3 m[10,0,47]
   + 3 m[10,1,44] + 3 m[10,1,45] - 3 m[10,1,46] - 3 m[10,1,47]
   - 500 c[10,11,0.0] >= -500
 R1553: c[10,11,-3.0] = 0
 R1554: c[10,11,-2.0] = 0
 R1555: c[10,11,-1.41504] = 0
 R1556: c[10,11,-1.0] = 0
 R1557: c[10,12,0.0] + c[10,12,-3.0] + c[10,12,-2.0] + c[10,12,-1.41504]
   + c[10,12,-1.0] = 1
 R1558: - m[10,1,48] - 500 c[10,12,0.0] >= -500
 R1559: 3 m[10,0,48] - 4 m[10,0,49] - 4 m[10,0,50] + 3 m[10,0,51]
   + 3 m[10,1,48] - 4 m[10,1,49] + 3 m[10,1,50] + 3 m[10,1,51]
   - 500 c[10,12,0.0] >= -500
 R1560: - 3 m[10,0,48] + 3 m[10,0,49] + 3 m[10,0,50] - 3 m[10,0,51]
   + 3 m[10,1,48] + 3 m[10,1,49] - 3 m[10,1,50] - 3 m[10,1,51]
   - 500 c[10,12,0.0] >= -500
 R1561: c[10,12,-3.0] = 0
 R1562: c[10,12,-2.0] = 0
 R1563: c[10,12,-1.41504] = 0
 R1564: c[10,12,-1.0] = 0
 R1565: c[10,13,0.0] + c[10,13,-3.0] + c[10,13,-2.0] + c[10,13,-1.41504]
   + c[10,13,-1.0] = 1
 R1566: - m[10,1,52] - 500 c[10,13,0.0] >= -500
 R1567: 3 m[10,0,52] - 4 m[10,0,53] - 4 m[10,0,54] + 3 m[10,0,55]
   + 3 m[10,1,52] - 4 m[10,1,53] + 3 m[10,1,54] + 3 m[10,1,55]
   - 500 c[10,13,0.0] >= -500
 R1568: - 3 m[10,0,52] + 3 m[10,0,53] + 3 m[10,0,54] - 3 m[10,0,55]
   + 3 m[10,1,52] + 3 m[10,1,53] - 3 m[10,1,54] - 3 m[10,1,55]
   - 500 c[10,13,0.0] >= -500
 R1569: c[10,13,-3.0] = 0
 R1570: c[10,13,-2.0] = 0
 R1571: c[10,13,-1.41504] = 0
 R1572: c[10,13,-1.0] = 0
 R1573: c[10,14,0.0] + c[10,14,-3.0] + c[10,14,-2.0] + c[10,14,-1.41504]
   + c[10,14,-1.0] = 1
 R1574: - m[10,1,56] - 500 c[10,14,0.0] >= -500
 R1575: 3 m[10,0,56] - 4 m[10,0,57] - 4 m[10,0,58] + 3 m[10,0,59]
   + 3 m[10,1,56] - 4 m[10,1,57] + 3 m[10,1,58] + 3 m[10,1,59]
   - 500 c[10,14,0.0] >= -500
 R1576: - 3 m[10,0,56] + 3 m[10,0,57] + 3 m[10,0,58] - 3 m[10,0,59]
   + 3 m[10,1,56] + 3 m[10,1,57] - 3 m[10,1,58] - 3 m[10,1,59]
   - 500 c[10,14,0.0] >= -500
 R1577: c[10,14,-3.0] = 0
 R1578: c[10,14,-2.0] = 0
 R1579: c[10,14,-1.41504] = 0
 R1580: c[10,14,-1.0] = 0
 R1581: c[10,15,0.0] + c[10,15,-3.0] + c[10,15,-2.0] + c[10,15,-1.41504]
   + c[10,15,-1.0] = 1
 R1582: - m[10,1,60] - 500 c[10,15,0.0] >= -500
 R1583: 3 m[10,0,60] - 4 m[10,0,61] - 4 m[10,0,62] + 3 m[10,0,63]
   + 3 m[10,1,60] - 4 m[10,1,61] + 3 m[10,1,62] + 3 m[10,1,63]
   - 500 c[10,15,0.0] >= -500
 R1584: - 3 m[10,0,60] + 3 m[10,0,61] + 3 m[10,0,62] - 3 m[10,0,63]
   + 3 m[10,1,60] + 3 m[10,1,61] - 3 m[10,1,62] - 3 m[10,1,63]
   - 500 c[10,15,0.0] >= -500
 R1585: c[10,15,-3.0] = 0
 R1586: c[10,15,-2.0] = 0
 R1587: c[10,15,-1.41504] = 0
 R1588: c[10,15,-1.0] = 0
 R1589: c[11,0,0.0] + c[11,0,-3.0] + c[11,0,-2.0] + c[11,0,-1.41504]
   + c[11,0,-1.0] = 1
 R1590: - m[11,1,0] - 500 c[11,0,0.0] >= -500
 R1591: 3 m[11,0,0] - 4 m[11,0,1] - 4 m[11,0,2] + 3 m[11,0,3] + 3 m[11,1,0]
   - 4 m[11,1,1] + 3 m[11,1,2] + 3 m[11,1,3] - 500 c[11,0,0.0] >= -500
 R1592: - 3 m[11,0,0] + 3 m[11,0,1] + 3 m[11,0,2] - 3 m[11,0,3]
   + 3 m[11,1,0] + 3 m[11,1,1] - 3 m[11,1,2] - 3 m[11,1,3]
   - 500 c[11,0,0.0] >= -500
 R1593: c[11,0,-3.0] = 0
 R1594: c[11,0,-2.0] = 0
 R1595: c[11,0,-1.41504] = 0
 R1596: c[11,0,-1.0] = 0
 R1597: c[11,1,0.0] + c[11,1,-3.0] + c[11,1,-2.0] + c[11,1,-1.41504]
   + c[11,1,-1.0] = 1
 R1598: - m[11,1,4] - 500 c[11,1,0.0] >= -500
 R1599: 3 m[11,0,4] - 4 m[11,0,5] - 4 m[11,0,6] + 3 m[11,0,7] + 3 m[11,1,4]
   - 4 m[11,1,5] + 3 m[11,1,6] + 3 m[11,1,7] - 500 c[11,1,0.0] >= -500
 R1600: - 3 m[11,0,4] + 3 m[11,0,5] + 3 m[11,0,6] - 3 m[11,0,7]
   + 3 m[11,1,4] + 3 m[11,1,5] - 3 m[11,1,6] - 3 m[11,1,7]
   - 500 c[11,1,0.0] >= -500
 R1601: c[11,1,-3.0] = 0
 R1602: c[11,1,-2.0] = 0
 R1603: c[11,1,-1.41504] = 0
 R1604: c[11,1,-1.0] = 0
 R1605: c[11,2,0.0] + c[11,2,-3.0] + c[11,2,-2.0] + c[11,2,-1.41504]
   + c[11,2,-1.0] = 1
 R1606: - m[11,1,8] - 500 c[11,2,0.0] >= -500
 R1607: 3 m[11,0,8] - 4 m[11,0,9] - 4 m[11,0,10] + 3 m[11,0,11]
   + 3 m[11,1,8] - 4 m[11,1,9] + 3 m[11,1,10] + 3 m[11,1,11]
   - 500 c[11,2,0.0] >= -500
 R1608: - 3 m[11,0,8] + 3 m[11,0,9] + 3 m[11,0,10] - 3 m[11,0,11]
   + 3 m[11,1,8] + 3 m[11,1,9] - 3 m[11,1,10] - 3 m[11,1,11]
   - 500 c[11,2,0.0] >= -500
 R1609: c[11,2,-3.0] = 0
 R1610: c[11,2,-2.0] = 0
 R1611: c[11,2,-1.41504] = 0
 R1612: c[11,2,-1.0] = 0
 R1613: c[11,3,0.0] + c[11,3,-3.0] + c[11,3,-2.0] + c[11,3,-1.41504]
   + c[11,3,-1.0] = 1
 R1614: - m[11,1,12] - 500 c[11,3,0.0] >= -500
 R1615: 3 m[11,0,12] - 4 m[11,0,13] - 4 m[11,0,14] + 3 m[11,0,15]
   + 3 m[11,1,12] - 4 m[11,1,13] + 3 m[11,1,14] + 3 m[11,1,15]
   - 500 c[11,3,0.0] >= -500
 R1616: - 3 m[11,0,12] + 3 m[11,0,13] + 3 m[11,0,14] - 3 m[11,0,15]
   + 3 m[11,1,12] + 3 m[11,1,13] - 3 m[11,1,14] - 3 m[11,1,15]
   - 500 c[11,3,0.0] >= -500
 R1617: c[11,3,-3.0] = 0
 R1618: c[11,3,-2.0] = 0
 R1619: c[11,3,-1.41504] = 0
 R1620: c[11,3,-1.0] = 0
 R1621: c[11,4,0.0] + c[11,4,-3.0] + c[11,4,-2.0] + c[11,4,-1.41504]
   + c[11,4,-1.0] = 1
 R1622: c[11,4,0.0] = 0
 R1623: c[11,4,-3.0] = 0
 R1624: - m[11,0,18] - m[11,1,17] - m[11,1,19] - 500 c[11,4,-2.0] >= -502
 R1625: m[11,0,18] - m[11,1,17] + m[11,1,19] - 500 c[11,4,-2.0] >= -500
 R1626: m[11,0,17] + m[11,0,18] - m[11,1,18] - 500 c[11,4,-2.0] >= -500
 R1627: m[11,0,18] + m[11,1,17] - m[11,1,19] - 500 c[11,4,-2.0] >= -500
 R1628: - m[11,0,17] - m[11,0,18] - m[11,1,18] - 500 c[11,4,-2.0] >= -502
 R1629: - m[11,0,17] + m[11,0,18] + m[11,1,18] - 500 c[11,4,-2.0] >= -500
 R1630: - m[11,0,18] + m[11,1,17] + m[11,1,19] - 500 c[11,4,-2.0] >= -500
 R1631: m[11,0,17] - m[11,0,18] + m[11,1,18] - 500 c[11,4,-2.0] >= -500
 R1632: c[11,4,-1.41504] = 0
 R1633: c[11,4,-1.0] = 0
 R1634: c[11,5,0.0] + c[11,5,-3.0] + c[11,5,-2.0] + c[11,5,-1.41504]
   + c[11,5,-1.0] = 1
 R1635: - m[11,1,20] - 500 c[11,5,0.0] >= -500
 R1636: 3 m[11,0,20] - 4 m[11,0,21] - 4 m[11,0,22] + 3 m[11,0,23]
   + 3 m[11,1,20] - 4 m[11,1,21] + 3 m[11,1,22] + 3 m[11,1,23]
   - 500 c[11,5,0.0] >= -500
 R1637: - 3 m[11,0,20] + 3 m[11,0,21] + 3 m[11,0,22] - 3 m[11,0,23]
   + 3 m[11,1,20] + 3 m[11,1,21] - 3 m[11,1,22] - 3 m[11,1,23]
   - 500 c[11,5,0.0] >= -500
 R1638: c[11,5,-3.0] = 0
 R1639: c[11,5,-2.0] = 0
 R1640: c[11,5,-1.41504] = 0
 R1641: c[11,5,-1.0] = 0
 R1642: c[11,6,0.0] + c[11,6,-3.0] + c[11,6,-2.0] + c[11,6,-1.41504]
   + c[11,6,-1.0] = 1
 R1643: c[11,6,0.0] = 0
 R1644: c[11,6,-3.0] = 0
 R1645: - m[11,0,26] - m[11,1,25] - m[11,1,27] - 500 c[11,6,-2.0] >= -502
 R1646: m[11,0,26] - m[11,1,25] + m[11,1,27] - 500 c[11,6,-2.0] >= -500
 R1647: m[11,0,25] + m[11,0,26] - m[11,1,26] - 500 c[11,6,-2.0] >= -500
 R1648: m[11,0,26] + m[11,1,25] - m[11,1,27] - 500 c[11,6,-2.0] >= -500
 R1649: - m[11,0,25] - m[11,0,26] - m[11,1,26] - 500 c[11,6,-2.0] >= -502
 R1650: - m[11,0,25] + m[11,0,26] + m[11,1,26] - 500 c[11,6,-2.0] >= -500
 R1651: - m[11,0,26] + m[11,1,25] + m[11,1,27] - 500 c[11,6,-2.0] >= -500
 R1652: m[11,0,25] - m[11,0,26] + m[11,1,26] - 500 c[11,6,-2.0] >= -500
 R1653: c[11,6,-1.41504] = 0
 R1654: c[11,6,-1.0] = 0
 R1655: c[11,7,0.0] + c[11,7,-3.0] + c[11,7,-2.0] + c[11,7,-1.41504]
   + c[11,7,-1.0] = 1
 R1656: - m[11,1,28] - 500 c[11,7,0.0] >= -500
 R1657: 3 m[11,0,28] - 4 m[11,0,29] - 4 m[11,0,30] + 3 m[11,0,31]
   + 3 m[11,1,28] - 4 m[11,1,29] + 3 m[11,1,30] + 3 m[11,1,31]
   - 500 c[11,7,0.0] >= -500
 R1658: - 3 m[11,0,28] + 3 m[11,0,29] + 3 m[11,0,30] - 3 m[11,0,31]
   + 3 m[11,1,28] + 3 m[11,1,29] - 3 m[11,1,30] - 3 m[11,1,31]
   - 500 c[11,7,0.0] >= -500
 R1659: c[11,7,-3.0] = 0
 R1660: c[11,7,-2.0] = 0
 R1661: c[11,7,-1.41504] = 0
 R1662: c[11,7,-1.0] = 0
 R1663: c[11,8,0.0] + c[11,8,-3.0] + c[11,8,-2.0] + c[11,8,-1.41504]
   + c[11,8,-1.0] = 1
 R1664: - m[11,1,32] - 500 c[11,8,0.0] >= -500
 R1665: 3 m[11,0,32] - 4 m[11,0,33] - 4 m[11,0,34] + 3 m[11,0,35]
   + 3 m[11,1,32] - 4 m[11,1,33] + 3 m[11,1,34] + 3 m[11,1,35]
   - 500 c[11,8,0.0] >= -500
 R1666: - 3 m[11,0,32] + 3 m[11,0,33] + 3 m[11,0,34] - 3 m[11,0,35]
   + 3 m[11,1,32] + 3 m[11,1,33] - 3 m[11,1,34] - 3 m[11,1,35]
   - 500 c[11,8,0.0] >= -500
 R1667: c[11,8,-3.0] = 0
 R1668: c[11,8,-2.0] = 0
 R1669: c[11,8,-1.41504] = 0
 R1670: c[11,8,-1.0] = 0
 R1671: c[11,9,0.0] + c[11,9,-3.0] + c[11,9,-2.0] + c[11,9,-1.41504]
   + c[11,9,-1.0] = 1
 R1672: - m[11,1,36] - 500 c[11,9,0.0] >= -500
 R1673: 3 m[11,0,36] - 4 m[11,0,37] - 4 m[11,0,38] + 3 m[11,0,39]
   + 3 m[11,1,36] - 4 m[11,1,37] + 3 m[11,1,38] + 3 m[11,1,39]
   - 500 c[11,9,0.0] >= -500
 R1674: - 3 m[11,0,36] + 3 m[11,0,37] + 3 m[11,0,38] - 3 m[11,0,39]
   + 3 m[11,1,36] + 3 m[11,1,37] - 3 m[11,1,38] - 3 m[11,1,39]
   - 500 c[11,9,0.0] >= -500
 R1675: c[11,9,-3.0] = 0
 R1676: c[11,9,-2.0] = 0
 R1677: c[11,9,-1.41504] = 0
 R1678: c[11,9,-1.0] = 0
 R1679: c[11,10,0.0] + c[11,10,-3.0] + c[11,10,-2.0] + c[11,10,-1.41504]
   + c[11,10,-1.0] = 1
 R1680: - m[11,1,40] - 500 c[11,10,0.0] >= -500
 R1681: 3 m[11,0,40] - 4 m[11,0,41] - 4 m[11,0,42] + 3 m[11,0,43]
   + 3 m[11,1,40] - 4 m[11,1,41] + 3 m[11,1,42] + 3 m[11,1,43]
   - 500 c[11,10,0.0] >= -500
 R1682: - 3 m[11,0,40] + 3 m[11,0,41] + 3 m[11,0,42] - 3 m[11,0,43]
   + 3 m[11,1,40] + 3 m[11,1,41] - 3 m[11,1,42] - 3 m[11,1,43]
   - 500 c[11,10,0.0] >= -500
 R1683: c[11,10,-3.0] = 0
 R1684: c[11,10,-2.0] = 0
 R1685: c[11,10,-1.41504] = 0
 R1686: c[11,10,-1.0] = 0
 R1687: c[11,11,0.0] + c[11,11,-3.0] + c[11,11,-2.0] + c[11,11,-1.41504]
   + c[11,11,-1.0] = 1
 R1688: - m[11,1,44] - 500 c[11,11,0.0] >= -500
 R1689: 3 m[11,0,44] - 4 m[11,0,45] - 4 m[11,0,46] + 3 m[11,0,47]
   + 3 m[11,1,44] - 4 m[11,1,45] + 3 m[11,1,46] + 3 m[11,1,47]
   - 500 c[11,11,0.0] >= -500
 R1690: - 3 m[11,0,44] + 3 m[11,0,45] + 3 m[11,0,46] - 3 m[11,0,47]
   + 3 m[11,1,44] + 3 m[11,1,45] - 3 m[11,1,46] - 3 m[11,1,47]
   - 500 c[11,11,0.0] >= -500
 R1691: c[11,11,-3.0] = 0
 R1692: c[11,11,-2.0] = 0
 R1693: c[11,11,-1.41504] = 0
 R1694: c[11,11,-1.0] = 0
 R1695: c[11,12,0.0] + c[11,12,-3.0] + c[11,12,-2.0] + c[11,12,-1.41504]
   + c[11,12,-1.0] = 1
 R1696: - m[11,1,48] - 500 c[11,12,0.0] >= -500
 R1697: 3 m[11,0,48] - 4 m[11,0,49] - 4 m[11,0,50] + 3 m[11,0,51]
   + 3 m[11,1,48] - 4 m[11,1,49] + 3 m[11,1,50] + 3 m[11,1,51]
   - 500 c[11,12,0.0] >= -500
 R1698: - 3 m[11,0,48] + 3 m[11,0,49] + 3 m[11,0,50] - 3 m[11,0,51]
   + 3 m[11,1,48] + 3 m[11,1,49] - 3 m[11,1,50] - 3 m[11,1,51]
   - 500 c[11,12,0.0] >= -500
 R1699: c[11,12,-3.0] = 0
 R1700: c[11,12,-2.0] = 0
 R1701: c[11,12,-1.41504] = 0
 R1702: c[11,12,-1.0] = 0
 R1703: c[11,13,0.0] + c[11,13,-3.0] + c[11,13,-2.0] + c[11,13,-1.41504]
   + c[11,13,-1.0] = 1
 R1704: - m[11,1,52] - 500 c[11,13,0.0] >= -500
 R1705: 3 m[11,0,52] - 4 m[11,0,53] - 4 m[11,0,54] + 3 m[11,0,55]
   + 3 m[11,1,52] - 4 m[11,1,53] + 3 m[11,1,54] + 3 m[11,1,55]
   - 500 c[11,13,0.0] >= -500
 R1706: - 3 m[11,0,52] + 3 m[11,0,53] + 3 m[11,0,54] - 3 m[11,0,55]
   + 3 m[11,1,52] + 3 m[11,1,53] - 3 m[11,1,54] - 3 m[11,1,55]
   - 500 c[11,13,0.0] >= -500
 R1707: c[11,13,-3.0] = 0
 R1708: c[11,13,-2.0] = 0
 R1709: c[11,13,-1.41504] = 0
 R1710: c[11,13,-1.0] = 0
 R1711: c[11,14,0.0] + c[11,14,-3.0] + c[11,14,-2.0] + c[11,14,-1.41504]
   + c[11,14,-1.0] = 1
 R1712: - m[11,1,56] - 500 c[11,14,0.0] >= -500
 R1713: 3 m[11,0,56] - 4 m[11,0,57] - 4 m[11,0,58] + 3 m[11,0,59]
   + 3 m[11,1,56] - 4 m[11,1,57] + 3 m[11,1,58] + 3 m[11,1,59]
   - 500 c[11,14,0.0] >= -500
 R1714: - 3 m[11,0,56] + 3 m[11,0,57] + 3 m[11,0,58] - 3 m[11,0,59]
   + 3 m[11,1,56] + 3 m[11,1,57] - 3 m[11,1,58] - 3 m[11,1,59]
   - 500 c[11,14,0.0] >= -500
 R1715: c[11,14,-3.0] = 0
 R1716: c[11,14,-2.0] = 0
 R1717: c[11,14,-1.41504] = 0
 R1718: c[11,14,-1.0] = 0
 R1719: c[11,15,0.0] + c[11,15,-3.0] + c[11,15,-2.0] + c[11,15,-1.41504]
   + c[11,15,-1.0] = 1
 R1720: - m[11,1,60] - 500 c[11,15,0.0] >= -500
 R1721: 3 m[11,0,60] - 4 m[11,0,61] - 4 m[11,0,62] + 3 m[11,0,63]
   + 3 m[11,1,60] - 4 m[11,1,61] + 3 m[11,1,62] + 3 m[11,1,63]
   - 500 c[11,15,0.0] >= -500
 R1722: - 3 m[11,0,60] + 3 m[11,0,61] + 3 m[11,0,62] - 3 m[11,0,63]
   + 3 m[11,1,60] + 3 m[11,1,61] - 3 m[11,1,62] - 3 m[11,1,63]
   - 500 c[11,15,0.0] >= -500
 R1723: c[11,15,-3.0] = 0
 R1724: c[11,15,-2.0] = 0
 R1725: c[11,15,-1.41504] = 0
 R1726: c[11,15,-1.0] = 0
 R1727: c[12,0,0.0] + c[12,0,-3.0] + c[12,0,-2.0] + c[12,0,-1.41504]
   + c[12,0,-1.0] = 1
 R1728: - m[12,1,0] - 500 c[12,0,0.0] >= -500
 R1729: 3 m[12,0,0] - 4 m[12,0,1] - 4 m[12,0,2] + 3 m[12,0,3] + 3 m[12,1,0]
   - 4 m[12,1,1] + 3 m[12,1,2] + 3 m[12,1,3] - 500 c[12,0,0.0] >= -500
 R1730: - 3 m[12,0,0] + 3 m[12,0,1] + 3 m[12,0,2] - 3 m[12,0,3]
   + 3 m[12,1,0] + 3 m[12,1,1] - 3 m[12,1,2] - 3 m[12,1,3]
   - 500 c[12,0,0.0] >= -500
 R1731: c[12,0,-3.0] = 0
 R1732: c[12,0,-2.0] = 0
 R1733: c[12,0,-1.41504] = 0
 R1734: c[12,0,-1.0] = 0
 R1735: c[12,1,0.0] + c[12,1,-3.0] + c[12,1,-2.0] + c[12,1,-1.41504]
   + c[12,1,-1.0] = 1
 R1736: c[12,1,0.0] = 0
 R1737: - m[12,0,5] - m[12,0,7] - m[12,1,6] - 500 c[12,1,-3.0] >= -502
 R1738: m[12,0,5] + m[12,0,7] - m[12,1,6] - 500 c[12,1,-3.0] >= -500
 R1739: - m[12,0,5] + m[12,0,7] + m[12,1,6] - 500 c[12,1,-3.0] >= -500
 R1740: m[12,0,5] - m[12,0,7] + m[12,1,6] - 500 c[12,1,-3.0] >= -500
 R1741: c[12,1,-2.0] = 0
 R1742: c[12,1,-1.41504] = 0
 R1743: c[12,1,-1.0] = 0
 R1744: c[12,2,0.0] + c[12,2,-3.0] + c[12,2,-2.0] + c[12,2,-1.41504]
   + c[12,2,-1.0] = 1
 R1745: - m[12,1,8] - 500 c[12,2,0.0] >= -500
 R1746: 3 m[12,0,8] - 4 m[12,0,9] - 4 m[12,0,10] + 3 m[12,0,11]
   + 3 m[12,1,8] - 4 m[12,1,9] + 3 m[12,1,10] + 3 m[12,1,11]
   - 500 c[12,2,0.0] >= -500
 R1747: - 3 m[12,0,8] + 3 m[12,0,9] + 3 m[12,0,10] - 3 m[12,0,11]
   + 3 m[12,1,8] + 3 m[12,1,9] - 3 m[12,1,10] - 3 m[12,1,11]
   - 500 c[12,2,0.0] >= -500
 R1748: c[12,2,-3.0] = 0
 R1749: c[12,2,-2.0] = 0
 R1750: c[12,2,-1.41504] = 0
 R1751: c[12,2,-1.0] = 0
 R1752: c[12,3,0.0] + c[12,3,-3.0] + c[12,3,-2.0] + c[12,3,-1.41504]
   + c[12,3,-1.0] = 1
 R1753: - m[12,1,12] - 500 c[12,3,0.0] >= -500
 R1754: 3 m[12,0,12] - 4 m[12,0,13] - 4 m[12,0,14] + 3 m[12,0,15]
   + 3 m[12,1,12] - 4 m[12,1,13] + 3 m[12,1,14] + 3 m[12,1,15]
   - 500 c[12,3,0.0] >= -500
 R1755: - 3 m[12,0,12] + 3 m[12,0,13] + 3 m[12,0,14] - 3 m[12,0,15]
   + 3 m[12,1,12] + 3 m[12,1,13] - 3 m[12,1,14] - 3 m[12,1,15]
   - 500 c[12,3,0.0] >= -500
 R1756: c[12,3,-3.0] = 0
 R1757: c[12,3,-2.0] = 0
 R1758: c[12,3,-1.41504] = 0
 R1759: c[12,3,-1.0] = 0
 R1760: c[12,4,0.0] + c[12,4,-3.0] + c[12,4,-2.0] + c[12,4,-1.41504]
   + c[12,4,-1.0] = 1
 R1761: - m[12,1,16] - 500 c[12,4,0.0] >= -500
 R1762: 3 m[12,0,16] - 4 m[12,0,17] - 4 m[12,0,18] + 3 m[12,0,19]
   + 3 m[12,1,16] - 4 m[12,1,17] + 3 m[12,1,18] + 3 m[12,1,19]
   - 500 c[12,4,0.0] >= -500
 R1763: - 3 m[12,0,16] + 3 m[12,0,17] + 3 m[12,0,18] - 3 m[12,0,19]
   + 3 m[12,1,16] + 3 m[12,1,17] - 3 m[12,1,18] - 3 m[12,1,19]
   - 500 c[12,4,0.0] >= -500
 R1764: c[12,4,-3.0] = 0
 R1765: c[12,4,-2.0] = 0
 R1766: c[12,4,-1.41504] = 0
 R1767: c[12,4,-1.0] = 0
 R1768: c[12,5,0.0] + c[12,5,-3.0] + c[12,5,-2.0] + c[12,5,-1.41504]
   + c[12,5,-1.0] = 1
 R1769: - m[12,1,20] - 500 c[12,5,0.0] >= -500
 R1770: 3 m[12,0,20] - 4 m[12,0,21] - 4 m[12,0,22] + 3 m[12,0,23]
   + 3 m[12,1,20] - 4 m[12,1,21] + 3 m[12,1,22] + 3 m[12,1,23]
   - 500 c[12,5,0.0] >= -500
 R1771: - 3 m[12,0,20] + 3 m[12,0,21] + 3 m[12,0,22] - 3 m[12,0,23]
   + 3 m[12,1,20] + 3 m[12,1,21] - 3 m[12,1,22] - 3 m[12,1,23]
   - 500 c[12,5,0.0] >= -500
 R1772: c[12,5,-3.0] = 0
 R1773: c[12,5,-2.0] = 0
 R1774: c[12,5,-1.41504] = 0
 R1775: c[12,5,-1.0] = 0
 R1776: c[12,6,0.0] + c[12,6,-3.0] + c[12,6,-2.0] + c[12,6,-1.41504]
   + c[12,6,-1.0] = 1
 R1777: - m[12,1,24] - 500 c[12,6,0.0] >= -500
 R1778: 3 m[12,0,24] - 4 m[12,0,25] - 4 m[12,0,26] + 3 m[12,0,27]
   + 3 m[12,1,24] - 4 m[12,1,25] + 3 m[12,1,26] + 3 m[12,1,27]
   - 500 c[12,6,0.0] >= -500
 R1779: - 3 m[12,0,24] + 3 m[12,0,25] + 3 m[12,0,26] - 3 m[12,0,27]
   + 3 m[12,1,24] + 3 m[12,1,25] - 3 m[12,1,26] - 3 m[12,1,27]
   - 500 c[12,6,0.0] >= -500
 R1780: c[12,6,-3.0] = 0
 R1781: c[12,6,-2.0] = 0
 R1782: c[12,6,-1.41504] = 0
 R1783: c[12,6,-1.0] = 0
 R1784: c[12,7,0.0] + c[12,7,-3.0] + c[12,7,-2.0] + c[12,7,-1.41504]
   + c[12,7,-1.0] = 1
 R1785: - m[12,1,28] - 500 c[12,7,0.0] >= -500
 R1786: 3 m[12,0,28] - 4 m[12,0,29] - 4 m[12,0,30] + 3 m[12,0,31]
   + 3 m[12,1,28] - 4 m[12,1,29] + 3 m[12,1,30] + 3 m[12,1,31]
   - 500 c[12,7,0.0] >= -500
 R1787: - 3 m[12,0,28] + 3 m[12,0,29] + 3 m[12,0,30] - 3 m[12,0,31]
   + 3 m[12,1,28] + 3 m[12,1,29] - 3 m[12,1,30] - 3 m[12,1,31]
   - 500 c[12,7,0.0] >= -500
 R1788: c[12,7,-3.0] = 0
 R1789: c[12,7,-2.0] = 0
 R1790: c[12,7,-1.41504] = 0
 R1791: c[12,7,-1.0] = 0
 R1792: c[12,8,0.0] + c[12,8,-3.0] + c[12,8,-2.0] + c[12,8,-1.41504]
   + c[12,8,-1.0] = 1
 R1793: - m[12,1,32] - 500 c[12,8,0.0] >= -500
 R1794: 3 m[12,0,32] - 4 m[12,0,33] - 4 m[12,0,34] + 3 m[12,0,35]
   + 3 m[12,1,32] - 4 m[12,1,33] + 3 m[12,1,34] + 3 m[12,1,35]
   - 500 c[12,8,0.0] >= -500
 R1795: - 3 m[12,0,32] + 3 m[12,0,33] + 3 m[12,0,34] - 3 m[12,0,35]
   + 3 m[12,1,32] + 3 m[12,1,33] - 3 m[12,1,34] - 3 m[12,1,35]
   - 500 c[12,8,0.0] >= -500
 R1796: c[12,8,-3.0] = 0
 R1797: c[12,8,-2.0] = 0
 R1798: c[12,8,-1.41504] = 0
 R1799: c[12,8,-1.0] = 0
 R1800: c[12,9,0.0] + c[12,9,-3.0] + c[12,9,-2.0] + c[12,9,-1.41504]
   + c[12,9,-1.0] = 1
 R1801: c[12,9,0.0] = 0
 R1802: - m[12,0,37] - m[12,0,39] - m[12,1,38] - 500 c[12,9,-3.0] >= -502
 R1803: m[12,0,37] + m[12,0,39] - m[12,1,38] - 500 c[12,9,-3.0] >= -500
 R1804: - m[12,0,37] + m[12,0,39] + m[12,1,38] - 500 c[12,9,-3.0] >= -500
 R1805: m[12,0,37] - m[12,0,39] + m[12,1,38] - 500 c[12,9,-3.0] >= -500
 R1806: c[12,9,-2.0] = 0
 R1807: c[12,9,-1.41504] = 0
 R1808: c[12,9,-1.0] = 0
 R1809: c[12,10,0.0] + c[12,10,-3.0] + c[12,10,-2.0] + c[12,10,-1.41504]
   + c[12,10,-1.0] = 1
 R1810: - m[12,1,40] - 500 c[12,10,0.0] >= -500
 R1811: 3 m[12,0,40] - 4 m[12,0,41] - 4 m[12,0,42] + 3 m[12,0,43]
   + 3 m[12,1,40] - 4 m[12,1,41] + 3 m[12,1,42] + 3 m[12,1,43]
   - 500 c[12,10,0.0] >= -500
 R1812: - 3 m[12,0,40] + 3 m[12,0,41] + 3 m[12,0,42] - 3 m[12,0,43]
   + 3 m[12,1,40] + 3 m[12,1,41] - 3 m[12,1,42] - 3 m[12,1,43]
   - 500 c[12,10,0.0] >= -500
 R1813: c[12,10,-3.0] = 0
 R1814: c[12,10,-2.0] = 0
 R1815: c[12,10,-1.41504] = 0
 R1816: c[12,10,-1.0] = 0
 R1817: c[12,11,0.0] + c[12,11,-3.0] + c[12,11,-2.0] + c[12,11,-1.41504]
   + c[12,11,-1.0] = 1
 R1818: - m[12,1,44] - 500 c[12,11,0.0] >= -500
 R1819: 3 m[12,0,44] - 4 m[12,0,45] - 4 m[12,0,46] + 3 m[12,0,47]
   + 3 m[12,1,44] - 4 m[12,1,45] + 3 m[12,1,46] + 3 m[12,1,47]
   - 500 c[12,11,0.0] >= -500
 R1820: - 3 m[12,0,44] + 3 m[12,0,45] + 3 m[12,0,46] - 3 m[12,0,47]
   + 3 m[12,1,44] + 3 m[12,1,45] - 3 m[12,1,46] - 3 m[12,1,47]
   - 500 c[12,11,0.0] >= -500
 R1821: c[12,11,-3.0] = 0
 R1822: c[12,11,-2.0] = 0
 R1823: c[12,11,-1.41504] = 0
 R1824: c[12,11,-1.0] = 0
 R1825: c[12,12,0.0] + c[12,12,-3.0] + c[12,12,-2.0] + c[12,12,-1.41504]
   + c[12,12,-1.0] = 1
 R1826: - m[12,1,48] - 500 c[12,12,0.0] >= -500
 R1827: 3 m[12,0,48] - 4 m[12,0,49] - 4 m[12,0,50] + 3 m[12,0,51]
   + 3 m[12,1,48] - 4 m[12,1,49] + 3 m[12,1,50] + 3 m[12,1,51]
   - 500 c[12,12,0.0] >= -500
 R1828: - 3 m[12,0,48] + 3 m[12,0,49] + 3 m[12,0,50] - 3 m[12,0,51]
   + 3 m[12,1,48] + 3 m[12,1,49] - 3 m[12,1,50] - 3 m[12,1,51]
   - 500 c[12,12,0.0] >= -500
 R1829: c[12,12,-3.0] = 0
 R1830: c[12,12,-2.0] = 0
 R1831: c[12,12,-1.41504] = 0
 R1832: c[12,12,-1.0] = 0
 R1833: c[12,13,0.0] + c[12,13,-3.0] + c[12,13,-2.0] + c[12,13,-1.41504]
   + c[12,13,-1.0] = 1
 R1834: - m[12,1,52] - 500 c[12,13,0.0] >= -500
 R1835: 3 m[12,0,52] - 4 m[12,0,53] - 4 m[12,0,54] + 3 m[12,0,55]
   + 3 m[12,1,52] - 4 m[12,1,53] + 3 m[12,1,54] + 3 m[12,1,55]
   - 500 c[12,13,0.0] >= -500
 R1836: - 3 m[12,0,52] + 3 m[12,0,53] + 3 m[12,0,54] - 3 m[12,0,55]
   + 3 m[12,1,52] + 3 m[12,1,53] - 3 m[12,1,54] - 3 m[12,1,55]
   - 500 c[12,13,0.0] >= -500
 R1837: c[12,13,-3.0] = 0
 R1838: c[12,13,-2.0] = 0
 R1839: c[12,13,-1.41504] = 0
 R1840: c[12,13,-1.0] = 0
 R1841: c[12,14,0.0] + c[12,14,-3.0] + c[12,14,-2.0] + c[12,14,-1.41504]
   + c[12,14,-1.0] = 1
 R1842: - m[12,1,56] - 500 c[12,14,0.0] >= -500
 R1843: 3 m[12,0,56] - 4 m[12,0,57] - 4 m[12,0,58] + 3 m[12,0,59]
   + 3 m[12,1,56] - 4 m[12,1,57] + 3 m[12,1,58] + 3 m[12,1,59]
   - 500 c[12,14,0.0] >= -500
 R1844: - 3 m[12,0,56] + 3 m[12,0,57] + 3 m[12,0,58] - 3 m[12,0,59]
   + 3 m[12,1,56] + 3 m[12,1,57] - 3 m[12,1,58] - 3 m[12,1,59]
   - 500 c[12,14,0.0] >= -500
 R1845: c[12,14,-3.0] = 0
 R1846: c[12,14,-2.0] = 0
 R1847: c[12,14,-1.41504] = 0
 R1848: c[12,14,-1.0] = 0
 R1849: c[12,15,0.0] + c[12,15,-3.0] + c[12,15,-2.0] + c[12,15,-1.41504]
   + c[12,15,-1.0] = 1
 R1850: - m[12,1,60] - 500 c[12,15,0.0] >= -500
 R1851: 3 m[12,0,60] - 4 m[12,0,61] - 4 m[12,0,62] + 3 m[12,0,63]
   + 3 m[12,1,60] - 4 m[12,1,61] + 3 m[12,1,62] + 3 m[12,1,63]
   - 500 c[12,15,0.0] >= -500
 R1852: - 3 m[12,0,60] + 3 m[12,0,61] + 3 m[12,0,62] - 3 m[12,0,63]
   + 3 m[12,1,60] + 3 m[12,1,61] - 3 m[12,1,62] - 3 m[12,1,63]
   - 500 c[12,15,0.0] >= -500
 R1853: c[12,15,-3.0] = 0
 R1854: c[12,15,-2.0] = 0
 R1855: c[12,15,-1.41504] = 0
 R1856: c[12,15,-1.0] = 0
 R1857: c[13,0,0.0] + c[13,0,-3.0] + c[13,0,-2.0] + c[13,0,-1.41504]
   + c[13,0,-1.0] = 1
 R1858: - m[13,1,0] - 500 c[13,0,0.0] >= -500
 R1859: 3 m[13,0,0] - 4 m[13,0,1] - 4 m[13,0,2] + 3 m[13,0,3] + 3 m[13,1,0]
   - 4 m[13,1,1] + 3 m[13,1,2] + 3 m[13,1,3] - 500 c[13,0,0.0] >= -500
 R1860: - 3 m[13,0,0] + 3 m[13,0,1] + 3 m[13,0,2] - 3 m[13,0,3]
   + 3 m[13,1,0] + 3 m[13,1,1] - 3 m[13,1,2] - 3 m[13,1,3]
   - 500 c[13,0,0.0] >= -500
 R1861: c[13,0,-3.0] = 0
 R1862: c[13,0,-2.0] = 0
 R1863: c[13,0,-1.41504] = 0
 R1864: c[13,0,-1.0] = 0
 R1865: c[13,1,0.0] + c[13,1,-3.0] + c[13,1,-2.0] + c[13,1,-1.41504]
   + c[13,1,-1.0] = 1
 R1866: - m[13,1,4] - 500 c[13,1,0.0] >= -500
 R1867: 3 m[13,0,4] - 4 m[13,0,5] - 4 m[13,0,6] + 3 m[13,0,7] + 3 m[13,1,4]
   - 4 m[13,1,5] + 3 m[13,1,6] + 3 m[13,1,7] - 500 c[13,1,0.0] >= -500
 R1868: - 3 m[13,0,4] + 3 m[13,0,5] + 3 m[13,0,6] - 3 m[13,0,7]
   + 3 m[13,1,4] + 3 m[13,1,5] - 3 m[13,1,6] - 3 m[13,1,7]
   - 500 c[13,1,0.0] >= -500
 R1869: c[13,1,-3.0] = 0
 R1870: c[13,1,-2.0] = 0
 R1871: c[13,1,-1.41504] = 0
 R1872: c[13,1,-1.0] = 0
 R1873: c[13,2,0.0] + c[13,2,-3.0] + c[13,2,-2.0] + c[13,2,-1.41504]
   + c[13,2,-1.0] = 1
 R1874: - m[13,1,8] - 500 c[13,2,0.0] >= -500
 R1875: 3 m[13,0,8] - 4 m[13,0,9] - 4 m[13,0,10] + 3 m[13,0,11]
   + 3 m[13,1,8] - 4 m[13,1,9] + 3 m[13,1,10] + 3 m[13,1,11]
   - 500 c[13,2,0.0] >= -500
 R1876: - 3 m[13,0,8] + 3 m[13,0,9] + 3 m[13,0,10] - 3 m[13,0,11]
   + 3 m[13,1,8] + 3 m[13,1,9] - 3 m[13,1,10] - 3 m[13,1,11]
   - 500 c[13,2,0.0] >= -500
 R1877: c[13,2,-3.0] = 0
 R1878: c[13,2,-2.0] = 0
 R1879: c[13,2,-1.41504] = 0
 R1880: c[13,2,-1.0] = 0
 R1881: c[13,3,0.0] + c[13,3,-3.0] + c[13,3,-2.0] + c[13,3,-1.41504]
   + c[13,3,-1.0] = 1
 R1882: - m[13,1,12] - 500 c[13,3,0.0] >= -500
 R1883: 3 m[13,0,12] - 4 m[13,0,13] - 4 m[13,0,14] + 3 m[13,0,15]
   + 3 m[13,1,12] - 4 m[13,1,13] + 3 m[13,1,14] + 3 m[13,1,15]
   - 500 c[13,3,0.0] >= -500
 R1884: - 3 m[13,0,12] + 3 m[13,0,13] + 3 m[13,0,14] - 3 m[13,0,15]
   + 3 m[13,1,12] + 3 m[13,1,13] - 3 m[13,1,14] - 3 m[13,1,15]
   - 500 c[13,3,0.0] >= -500
 R1885: c[13,3,-3.0] = 0
 R1886: c[13,3,-2.0] = 0
 R1887: c[13,3,-1.41504] = 0
 R1888: c[13,3,-1.0] = 0
 R1889: c[13,4,0.0] + c[13,4,-3.0] + c[13,4,-2.0] + c[13,4,-1.41504]
   + c[13,4,-1.0] = 1
 R1890: - m[13,1,16] - 500 c[13,4,0.0] >= -500
 R1891: 3 m[13,0,16] - 4 m[13,0,17] - 4 m[13,0,18] + 3 m[13,0,19]
   + 3 m[13,1,16] - 4 m[13,1,17] + 3 m[13,1,18] + 3 m[13,1,19]
   - 500 c[13,4,0.0] >= -500
 R1892: - 3 m[13,0,16] + 3 m[13,0,17] + 3 m[13,0,18] - 3 m[13,0,19]
   + 3 m[13,1,16] + 3 m[13,1,17] - 3 m[13,1,18] - 3 m[13,1,19]
   - 500 c[13,4,0.0] >= -500
 R1893: c[13,4,-3.0] = 0
 R1894: c[13,4,-2.0] = 0
 R1895: c[13,4,-1.41504] = 0
 R1896: c[13,4,-1.0] = 0
 R1897: c[13,5,0.0] + c[13,5,-3.0] + c[13,5,-2.0] + c[13,5,-1.41504]
   + c[13,5,-1.0] = 1
 R1898: - m[13,1,20] - 500 c[13,5,0.0] >= -500
 R1899: 3 m[13,0,20] - 4 m[13,0,21] - 4 m[13,0,22] + 3 m[13,0,23]
   + 3 m[13,1,20] - 4 m[13,1,21] + 3 m[13,1,22] + 3 m[13,1,23]
   - 500 c[13,5,0.0] >= -500
 R1900: - 3 m[13,0,20] + 3 m[13,0,21] + 3 m[13,0,22] - 3 m[13,0,23]
   + 3 m[13,1,20] + 3 m[13,1,21] - 3 m[13,1,22] - 3 m[13,1,23]
   - 500 c[13,5,0.0] >= -500
 R1901: c[13,5,-3.0] = 0
 R1902: c[13,5,-2.0] = 0
 R1903: c[13,5,-1.41504] = 0
 R1904: c[13,5,-1.0] = 0
 R1905: c[13,6,0.0] + c[13,6,-3.0] + c[13,6,-2.0] + c[13,6,-1.41504]
   + c[13,6,-1.0] = 1
 R1906: - m[13,1,24] - 500 c[13,6,0.0] >= -500
 R1907: 3 m[13,0,24] - 4 m[13,0,25] - 4 m[13,0,26] + 3 m[13,0,27]
   + 3 m[13,1,24] - 4 m[13,1,25] + 3 m[13,1,26] + 3 m[13,1,27]
   - 500 c[13,6,0.0] >= -500
 R1908: - 3 m[13,0,24] + 3 m[13,0,25] + 3 m[13,0,26] - 3 m[13,0,27]
   + 3 m[13,1,24] + 3 m[13,1,25] - 3 m[13,1,26] - 3 m[13,1,27]
   - 500 c[13,6,0.0] >= -500
 R1909: c[13,6,-3.0] = 0
 R1910: c[13,6,-2.0] = 0
 R1911: c[13,6,-1.41504] = 0
 R1912: c[13,6,-1.0] = 0
 R1913: c[13,7,0.0] + c[13,7,-3.0] + c[13,7,-2.0] + c[13,7,-1.41504]
   + c[13,7,-1.0] = 1
 R1914: - m[13,1,28] - 500 c[13,7,0.0] >= -500
 R1915: 3 m[13,0,28] - 4 m[13,0,29] - 4 m[13,0,30] + 3 m[13,0,31]
   + 3 m[13,1,28] - 4 m[13,1,29] + 3 m[13,1,30] + 3 m[13,1,31]
   - 500 c[13,7,0.0] >= -500
 R1916: - 3 m[13,0,28] + 3 m[13,0,29] + 3 m[13,0,30] - 3 m[13,0,31]
   + 3 m[13,1,28] + 3 m[13,1,29] - 3 m[13,1,30] - 3 m[13,1,31]
   - 500 c[13,7,0.0] >= -500
 R1917: c[13,7,-3.0] = 0
 R1918: c[13,7,-2.0] = 0
 R1919: c[13,7,-1.41504] = 0
 R1920: c[13,7,-1.0] = 0
 R1921: c[13,8,0.0] + c[13,8,-3.0] + c[13,8,-2.0] + c[13,8,-1.41504]
   + c[13,8,-1.0] = 1
 R1922: - m[13,1,32] - 500 c[13,8,0.0] >= -500
 R1923: 3 m[13,0,32] - 4 m[13,0,33] - 4 m[13,0,34] + 3 m[13,0,35]
   + 3 m[13,1,32] - 4 m[13,1,33] + 3 m[13,1,34] + 3 m[13,1,35]
   - 500 c[13,8,0.0] >= -500
 R1924: - 3 m[13,0,32] + 3 m[13,0,33] + 3 m[13,0,34] - 3 m[13,0,35]
   + 3 m[13,1,32] + 3 m[13,1,33] - 3 m[13,1,34] - 3 m[13,1,35]
   - 500 c[13,8,0.0] >= -500
 R1925: c[13,8,-3.0] = 0
 R1926: c[13,8,-2.0] = 0
 R1927: c[13,8,-1.41504] = 0
 R1928: c[13,8,-1.0] = 0
 R1929: c[13,9,0.0] + c[13,9,-3.0] + c[13,9,-2.0] + c[13,9,-1.41504]
   + c[13,9,-1.0] = 1
 R1930: - m[13,1,36] - 500 c[13,9,0.0] >= -500
 R1931: 3 m[13,0,36] - 4 m[13,0,37] - 4 m[13,0,38] + 3 m[13,0,39]
   + 3 m[13,1,36] - 4 m[13,1,37] + 3 m[13,1,38] + 3 m[13,1,39]
   - 500 c[13,9,0.0] >= -500
 R1932: - 3 m[13,0,36] + 3 m[13,0,37] + 3 m[13,0,38] - 3 m[13,0,39]
   + 3 m[13,1,36] + 3 m[13,1,37] - 3 m[13,1,38] - 3 m[13,1,39]
   - 500 c[13,9,0.0] >= -500
 R1933: c[13,9,-3.0] = 0
 R1934: c[13,9,-2.0] = 0
 R1935: c[13,9,-1.41504] = 0
 R1936: c[13,9,-1.0] = 0
 R1937: c[13,10,0.0] + c[13,10,-3.0] + c[13,10,-2.0] + c[13,10,-1.41504]
   + c[13,10,-1.0] = 1
 R1938: - m[13,1,40] - 500 c[13,10,0.0] >= -500
 R1939: 3 m[13,0,40] - 4 m[13,0,41] - 4 m[13,0,42] + 3 m[13,0,43]
   + 3 m[13,1,40] - 4 m[13,1,41] + 3 m[13,1,42] + 3 m[13,1,43]
   - 500 c[13,10,0.0] >= -500
 R1940: - 3 m[13,0,40] + 3 m[13,0,41] + 3 m[13,0,42] - 3 m[13,0,43]
   + 3 m[13,1,40] + 3 m[13,1,41] - 3 m[13,1,42] - 3 m[13,1,43]
   - 500 c[13,10,0.0] >= -500
 R1941: c[13,10,-3.0] = 0
 R1942: c[13,10,-2.0] = 0
 R1943: c[13,10,-1.41504] = 0
 R1944: c[13,10,-1.0] = 0
 R1945: c[13,11,0.0] + c[13,11,-3.0] + c[13,11,-2.0] + c[13,11,-1.41504]
   + c[13,11,-1.0] = 1
 R1946: - m[13,1,44] - 500 c[13,11,0.0] >= -500
 R1947: 3 m[13,0,44] - 4 m[13,0,45] - 4 m[13,0,46] + 3 m[13,0,47]
   + 3 m[13,1,44] - 4 m[13,1,45] + 3 m[13,1,46] + 3 m[13,1,47]
   - 500 c[13,11,0.0] >= -500
 R1948: - 3 m[13,0,44] + 3 m[13,0,45] + 3 m[13,0,46] - 3 m[13,0,47]
   + 3 m[13,1,44] + 3 m[13,1,45] - 3 m[13,1,46] - 3 m[13,1,47]
   - 500 c[13,11,0.0] >= -500
 R1949: c[13,11,-3.0] = 0
 R1950: c[13,11,-2.0] = 0
 R1951: c[13,11,-1.41504] = 0
 R1952: c[13,11,-1.0] = 0
 R1953: c[13,12,0.0] + c[13,12,-3.0] + c[13,12,-2.0] + c[13,12,-1.41504]
   + c[13,12,-1.0] = 1
 R1954: - m[13,1,48] - 500 c[13,12,0.0] >= -500
 R1955: 3 m[13,0,48] - 4 m[13,0,49] - 4 m[13,0,50] + 3 m[13,0,51]
   + 3 m[13,1,48] - 4 m[13,1,49] + 3 m[13,1,50] + 3 m[13,1,51]
   - 500 c[13,12,0.0] >= -500
 R1956: - 3 m[13,0,48] + 3 m[13,0,49] + 3 m[13,0,50] - 3 m[13,0,51]
   + 3 m[13,1,48] + 3 m[13,1,49] - 3 m[13,1,50] - 3 m[13,1,51]
   - 500 c[13,12,0.0] >= -500
 R1957: c[13,12,-3.0] = 0
 R1958: c[13,12,-2.0] = 0
 R1959: c[13,12,-1.41504] = 0
 R1960: c[13,12,-1.0] = 0
 R1961: c[13,13,0.0] + c[13,13,-3.0] + c[13,13,-2.0] + c[13,13,-1.41504]
   + c[13,13,-1.0] = 1
 R1962: - m[13,1,52] - 500 c[13,13,0.0] >= -500
 R1963: 3 m[13,0,52] - 4 m[13,0,53] - 4 m[13,0,54] + 3 m[13,0,55]
   + 3 m[13,1,52] - 4 m[13,1,53] + 3 m[13,1,54] + 3 m[13,1,55]
   - 500 c[13,13,0.0] >= -500
 R1964: - 3 m[13,0,52] + 3 m[13,0,53] + 3 m[13,0,54] - 3 m[13,0,55]
   + 3 m[13,1,52] + 3 m[13,1,53] - 3 m[13,1,54] - 3 m[13,1,55]
   - 500 c[13,13,0.0] >= -500
 R1965: c[13,13,-3.0] = 0
 R1966: c[13,13,-2.0] = 0
 R1967: c[13,13,-1.41504] = 0
 R1968: c[13,13,-1.0] = 0
 R1969: c[13,14,0.0] + c[13,14,-3.0] + c[13,14,-2.0] + c[13,14,-1.41504]
   + c[13,14,-1.0] = 1
 R1970: - m[13,1,56] - 500 c[13,14,0.0] >= -500
 R1971: 3 m[13,0,56] - 4 m[13,0,57] - 4 m[13,0,58] + 3 m[13,0,59]
   + 3 m[13,1,56] - 4 m[13,1,57] + 3 m[13,1,58] + 3 m[13,1,59]
   - 500 c[13,14,0.0] >= -500
 R1972: - 3 m[13,0,56] + 3 m[13,0,57] + 3 m[13,0,58] - 3 m[13,0,59]
   + 3 m[13,1,56] + 3 m[13,1,57] - 3 m[13,1,58] - 3 m[13,1,59]
   - 500 c[13,14,0.0] >= -500
 R1973: c[13,14,-3.0] = 0
 R1974: c[13,14,-2.0] = 0
 R1975: c[13,14,-1.41504] = 0
 R1976: c[13,14,-1.0] = 0
 R1977: c[13,15,0.0] + c[13,15,-3.0] + c[13,15,-2.0] + c[13,15,-1.41504]
   + c[13,15,-1.0] = 1
 R1978: - m[13,1,60] - 500 c[13,15,0.0] >= -500
 R1979: 3 m[13,0,60] - 4 m[13,0,61] - 4 m[13,0,62] + 3 m[13,0,63]
   + 3 m[13,1,60] - 4 m[13,1,61] + 3 m[13,1,62] + 3 m[13,1,63]
   - 500 c[13,15,0.0] >= -500
 R1980: - 3 m[13,0,60] + 3 m[13,0,61] + 3 m[13,0,62] - 3 m[13,0,63]
   + 3 m[13,1,60] + 3 m[13,1,61] - 3 m[13,1,62] - 3 m[13,1,63]
   - 500 c[13,15,0.0] >= -500
 R1981: c[13,15,-3.0] = 0
 R1982: c[13,15,-2.0] = 0
 R1983: c[13,15,-1.41504] = 0
 R1984: c[13,15,-1.0] = 0
 R1985: c[14,0,0.0] + c[14,0,-3.0] + c[14,0,-2.0] + c[14,0,-1.41504]
   + c[14,0,-1.0] = 1
 R1986: - m[14,1,0] - 500 c[14,0,0.0] >= -500
 R1987: 3 m[14,0,0] - 4 m[14,0,1] - 4 m[14,0,2] + 3 m[14,0,3] + 3 m[14,1,0]
   - 4 m[14,1,1] + 3 m[14,1,2] + 3 m[14,1,3] - 500 c[14,0,0.0] >= -500
 R1988: - 3 m[14,0,0] + 3 m[14,0,1] + 3 m[14,0,2] - 3 m[14,0,3]
   + 3 m[14,1,0] + 3 m[14,1,1] - 3 m[14,1,2] - 3 m[14,1,3]
   - 500 c[14,0,0.0] >= -500
 R1989: c[14,0,-3.0] = 0
 R1990: c[14,0,-2.0] = 0
 R1991: c[14,0,-1.41504] = 0
 R1992: c[14,0,-1.0] = 0
 R1993: c[14,1,0.0] + c[14,1,-3.0] + c[14,1,-2.0] + c[14,1,-1.41504]
   + c[14,1,-1.0] = 1
 R1994: - m[14,1,4] - 500 c[14,1,0.0] >= -500
 R1995: 3 m[14,0,4] - 4 m[14,0,5] - 4 m[14,0,6] + 3 m[14,0,7] + 3 m[14,1,4]
   - 4 m[14,1,5] + 3 m[14,1,6] + 3 m[14,1,7] - 500 c[14,1,0.0] >= -500
 R1996: - 3 m[14,0,4] + 3 m[14,0,5] + 3 m[14,0,6] - 3 m[14,0,7]
   + 3 m[14,1,4] + 3 m[14,1,5] - 3 m[14,1,6] - 3 m[14,1,7]
   - 500 c[14,1,0.0] >= -500
 R1997: c[14,1,-3.0] = 0
 R1998: c[14,1,-2.0] = 0
 R1999: c[14,1,-1.41504] = 0
 R2000: c[14,1,-1.0] = 0
 R2001: c[14,2,0.0] + c[14,2,-3.0] + c[14,2,-2.0] + c[14,2,-1.41504]
   + c[14,2,-1.0] = 1
 R2002: - m[14,1,8] - 500 c[14,2,0.0] >= -500
 R2003: 3 m[14,0,8] - 4 m[14,0,9] - 4 m[14,0,10] + 3 m[14,0,11]
   + 3 m[14,1,8] - 4 m[14,1,9] + 3 m[14,1,10] + 3 m[14,1,11]
   - 500 c[14,2,0.0] >= -500
 R2004: - 3 m[14,0,8] + 3 m[14,0,9] + 3 m[14,0,10] - 3 m[14,0,11]
   + 3 m[14,1,8] + 3 m[14,1,9] - 3 m[14,1,10] - 3 m[14,1,11]
   - 500 c[14,2,0.0] >= -500
 R2005: c[14,2,-3.0] = 0
 R2006: c[14,2,-2.0] = 0
 R2007: c[14,2,-1.41504] = 0
 R2008: c[14,2,-1.0] = 0
 R2009: c[14,3,0.0] + c[14,3,-3.0] + c[14,3,-2.0] + c[14,3,-1.41504]
   + c[14,3,-1.0] = 1
 R2010: - m[14,1,12] - 500 c[14,3,0.0] >= -500
 R2011: 3 m[14,0,12] - 4 m[14,0,13] - 4 m[14,0,14] + 3 m[14,0,15]
   + 3 m[14,1,12] - 4 m[14,1,13] + 3 m[14,1,14] + 3 m[14,1,15]
   - 500 c[14,3,0.0] >= -500
 R2012: - 3 m[14,0,12] + 3 m[14,0,13] + 3 m[14,0,14] - 3 m[14,0,15]
   + 3 m[14,1,12] + 3 m[14,1,13] - 3 m[14,1,14] - 3 m[14,1,15]
   - 500 c[14,3,0.0] >= -500
 R2013: c[14,3,-3.0] = 0
 R2014: c[14,3,-2.0] = 0
 R2015: c[14,3,-1.41504] = 0
 R2016: c[14,3,-1.0] = 0
 R2017: c[14,4,0.0] + c[14,4,-3.0] + c[14,4,-2.0] + c[14,4,-1.41504]
   + c[14,4,-1.0] = 1
 R2018: - m[14,1,16] - 500 c[14,4,0.0] >= -500
 R2019: 3 m[14,0,16] - 4 m[14,0,17] - 4 m[14,0,18] + 3 m[14,0,19]
   + 3 m[14,1,16] - 4 m[14,1,17] + 3 m[14,1,18] + 3 m[14,1,19]
   - 500 c[14,4,0.0] >= -500
 R2020: - 3 m[14,0,16] + 3 m[14,0,17] + 3 m[14,0,18] - 3 m[14,0,19]
   + 3 m[14,1,16] + 3 m[14,1,17] - 3 m[14,1,18] - 3 m[14,1,19]
   - 500 c[14,4,0.0] >= -500
 R2021: c[14,4,-3.0] = 0
 R2022: c[14,4,-2.0] = 0
 R2023: c[14,4,-1.41504] = 0
 R2024: c[14,4,-1.0] = 0
 R2025: c[14,5,0.0] + c[14,5,-3.0] + c[14,5,-2.0] + c[14,5,-1.41504]
   + c[14,5,-1.0] = 1
 R2026: - m[14,1,20] - 500 c[14,5,0.0] >= -500
 R2027: 3 m[14,0,20] - 4 m[14,0,21] - 4 m[14,0,22] + 3 m[14,0,23]
   + 3 m[14,1,20] - 4 m[14,1,21] + 3 m[14,1,22] + 3 m[14,1,23]
   - 500 c[14,5,0.0] >= -500
 R2028: - 3 m[14,0,20] + 3 m[14,0,21] + 3 m[14,0,22] - 3 m[14,0,23]
   + 3 m[14,1,20] + 3 m[14,1,21] - 3 m[14,1,22] - 3 m[14,1,23]
   - 500 c[14,5,0.0] >= -500
 R2029: c[14,5,-3.0] = 0
 R2030: c[14,5,-2.0] = 0
 R2031: c[14,5,-1.41504] = 0
 R2032: c[14,5,-1.0] = 0
 R2033: c[14,6,0.0] + c[14,6,-3.0] + c[14,6,-2.0] + c[14,6,-1.41504]
   + c[14,6,-1.0] = 1
 R2034: - m[14,1,24] - 500 c[14,6,0.0] >= -500
 R2035: 3 m[14,0,24] - 4 m[14,0,25] - 4 m[14,0,26] + 3 m[14,0,27]
   + 3 m[14,1,24] - 4 m[14,1,25] + 3 m[14,1,26] + 3 m[14,1,27]
   - 500 c[14,6,0.0] >= -500
 R2036: - 3 m[14,0,24] + 3 m[14,0,25] + 3 m[14,0,26] - 3 m[14,0,27]
   + 3 m[14,1,24] + 3 m[14,1,25] - 3 m[14,1,26] - 3 m[14,1,27]
   - 500 c[14,6,0.0] >= -500
 R2037: c[14,6,-3.0] = 0
 R2038: c[14,6,-2.0] = 0
 R2039: c[14,6,-1.41504] = 0
 R2040: c[14,6,-1.0] = 0
 R2041: c[14,7,0.0] + c[14,7,-3.0] + c[14,7,-2.0] + c[14,7,-1.41504]
   + c[14,7,-1.0] = 1
 R2042: - m[14,1,28] - 500 c[14,7,0.0] >= -500
 R2043: 3 m[14,0,28] - 4 m[14,0,29] - 4 m[14,0,30] + 3 m[14,0,31]
   + 3 m[14,1,28] - 4 m[14,1,29] + 3 m[14,1,30] + 3 m[14,1,31]
   - 500 c[14,7,0.0] >= -500
 R2044: - 3 m[14,0,28] + 3 m[14,0,29] + 3 m[14,0,30] - 3 m[14,0,31]
   + 3 m[14,1,28] + 3 m[14,1,29] - 3 m[14,1,30] - 3 m[14,1,31]
   - 500 c[14,7,0.0] >= -500
 R2045: c[14,7,-3.0] = 0
 R2046: c[14,7,-2.0] = 0
 R2047: c[14,7,-1.41504] = 0
 R2048: c[14,7,-1.0] = 0
 R2049: c[14,8,0.0] + c[14,8,-3.0] + c[14,8,-2.0] + c[14,8,-1.41504]
   + c[14,8,-1.0] = 1
 R2050: - m[14,1,32] - 500 c[14,8,0.0] >= -500
 R2051: 3 m[14,0,32] - 4 m[14,0,33] - 4 m[14,0,34] + 3 m[14,0,35]
   + 3 m[14,1,32] - 4 m[14,1,33] + 3 m[14,1,34] + 3 m[14,1,35]
   - 500 c[14,8,0.0] >= -500
 R2052: - 3 m[14,0,32] + 3 m[14,0,33] + 3 m[14,0,34] - 3 m[14,0,35]
   + 3 m[14,1,32] + 3 m[14,1,33] - 3 m[14,1,34] - 3 m[14,1,35]
   - 500 c[14,8,0.0] >= -500
 R2053: c[14,8,-3.0] = 0
 R2054: c[14,8,-2.0] = 0
 R2055: c[14,8,-1.41504] = 0
 R2056: c[14,8,-1.0] = 0
 R2057: c[14,9,0.0] + c[14,9,-3.0] + c[14,9,-2.0] + c[14,9,-1.41504]
   + c[14,9,-1.0] = 1
 R2058: - m[14,1,36] - 500 c[14,9,0.0] >= -500
 R2059: 3 m[14,0,36] - 4 m[14,0,37] - 4 m[14,0,38] + 3 m[14,0,39]
   + 3 m[14,1,36] - 4 m[14,1,37] + 3 m[14,1,38] + 3 m[14,1,39]
   - 500 c[14,9,0.0] >= -500
 R2060: - 3 m[14,0,36] + 3 m[14,0,37] + 3 m[14,0,38] - 3 m[14,0,39]
   + 3 m[14,1,36] + 3 m[14,1,37] - 3 m[14,1,38] - 3 m[14,1,39]
   - 500 c[14,9,0.0] >= -500
 R2061: c[14,9,-3.0] = 0
 R2062: c[14,9,-2.0] = 0
 R2063: c[14,9,-1.41504] = 0
 R2064: c[14,9,-1.0] = 0
 R2065: c[14,10,0.0] + c[14,10,-3.0] + c[14,10,-2.0] + c[14,10,-1.41504]
   + c[14,10,-1.0] = 1
 R2066: - m[14,1,40] - 500 c[14,10,0.0] >= -500
 R2067: 3 m[14,0,40] - 4 m[14,0,41] - 4 m[14,0,42] + 3 m[14,0,43]
   + 3 m[14,1,40] - 4 m[14,1,41] + 3 m[14,1,42] + 3 m[14,1,43]
   - 500 c[14,10,0.0] >= -500
 R2068: - 3 m[14,0,40] + 3 m[14,0,41] + 3 m[14,0,42] - 3 m[14,0,43]
   + 3 m[14,1,40] + 3 m[14,1,41] - 3 m[14,1,42] - 3 m[14,1,43]
   - 500 c[14,10,0.0] >= -500
 R2069: c[14,10,-3.0] = 0
 R2070: c[14,10,-2.0] = 0
 R2071: c[14,10,-1.41504] = 0
 R2072: c[14,10,-1.0] = 0
 R2073: c[14,11,0.0] + c[14,11,-3.0] + c[14,11,-2.0] + c[14,11,-1.41504]
   + c[14,11,-1.0] = 1
 R2074: - m[14,1,44] - 500 c[14,11,0.0] >= -500
 R2075: 3 m[14,0,44] - 4 m[14,0,45] - 4 m[14,0,46] + 3 m[14,0,47]
   + 3 m[14,1,44] - 4 m[14,1,45] + 3 m[14,1,46] + 3 m[14,1,47]
   - 500 c[14,11,0.0] >= -500
 R2076: - 3 m[14,0,44] + 3 m[14,0,45] + 3 m[14,0,46] - 3 m[14,0,47]
   + 3 m[14,1,44] + 3 m[14,1,45] - 3 m[14,1,46] - 3 m[14,1,47]
   - 500 c[14,11,0.0] >= -500
 R2077: c[14,11,-3.0] = 0
 R2078: c[14,11,-2.0] = 0
 R2079: c[14,11,-1.41504] = 0
 R2080: c[14,11,-1.0] = 0
 R2081: c[14,12,0.0] + c[14,12,-3.0] + c[14,12,-2.0] + c[14,12,-1.41504]
   + c[14,12,-1.0] = 1
 R2082: - m[14,1,48] - 500 c[14,12,0.0] >= -500
 R2083: 3 m[14,0,48] - 4 m[14,0,49] - 4 m[14,0,50] + 3 m[14,0,51]
   + 3 m[14,1,48] - 4 m[14,1,49] + 3 m[14,1,50] + 3 m[14,1,51]
   - 500 c[14,12,0.0] >= -500
 R2084: - 3 m[14,0,48] + 3 m[14,0,49] + 3 m[14,0,50] - 3 m[14,0,51]
   + 3 m[14,1,48] + 3 m[14,1,49] - 3 m[14,1,50] - 3 m[14,1,51]
   - 500 c[14,12,0.0] >= -500
 R2085: c[14,12,-3.0] = 0
 R2086: c[14,12,-2.0] = 0
 R2087: c[14,12,-1.41504] = 0
 R2088: c[14,12,-1.0] = 0
 R2089: c[14,13,0.0] + c[14,13,-3.0] + c[14,13,-2.0] + c[14,13,-1.41504]
   + c[14,13,-1.0] = 1
 R2090: - m[14,1,52] - 500 c[14,13,0.0] >= -500
 R2091: 3 m[14,0,52] - 4 m[14,0,53] - 4 m[14,0,54] + 3 m[14,0,55]
   + 3 m[14,1,52] - 4 m[14,1,53] + 3 m[14,1,54] + 3 m[14,1,55]
   - 500 c[14,13,0.0] >= -500
 R2092: - 3 m[14,0,52] + 3 m[14,0,53] + 3 m[14,0,54] - 3 m[14,0,55]
   + 3 m[14,1,52] + 3 m[14,1,53] - 3 m[14,1,54] - 3 m[14,1,55]
   - 500 c[14,13,0.0] >= -500
 R2093: c[14,13,-3.0] = 0
 R2094: c[14,13,-2.0] = 0
 R2095: c[14,13,-1.41504] = 0
 R2096: c[14,13,-1.0] = 0
 R2097: c[14,14,0.0] + c[14,14,-3.0] + c[14,14,-2.0] + c[14,14,-1.41504]
   + c[14,14,-1.0] = 1
 R2098: - m[14,1,56] - 500 c[14,14,0.0] >= -500
 R2099: 3 m[14,0,56] - 4 m[14,0,57] - 4 m[14,0,58] + 3 m[14,0,59]
   + 3 m[14,1,56] - 4 m[14,1,57] + 3 m[14,1,58] + 3 m[14,1,59]
   - 500 c[14,14,0.0] >= -500
 R2100: - 3 m[14,0,56] + 3 m[14,0,57] + 3 m[14,0,58] - 3 m[14,0,59]
   + 3 m[14,1,56] + 3 m[14,1,57] - 3 m[14,1,58] - 3 m[14,1,59]
   - 500 c[14,14,0.0] >= -500
 R2101: c[14,14,-3.0] = 0
 R2102: c[14,14,-2.0] = 0
 R2103: c[14,14,-1.41504] = 0
 R2104: c[14,14,-1.0] = 0
 R2105: c[14,15,0.0] + c[14,15,-3.0] + c[14,15,-2.0] + c[14,15,-1.41504]
   + c[14,15,-1.0] = 1
 R2106: - m[14,1,60] - 500 c[14,15,0.0] >= -500
 R2107: 3 m[14,0,60] - 4 m[14,0,61] - 4 m[14,0,62] + 3 m[14,0,63]
   + 3 m[14,1,60] - 4 m[14,1,61] + 3 m[14,1,62] + 3 m[14,1,63]
   - 500 c[14,15,0.0] >= -500
 R2108: - 3 m[14,0,60] + 3 m[14,0,61] + 3 m[14,0,62] - 3 m[14,0,63]
   + 3 m[14,1,60] + 3 m[14,1,61] - 3 m[14,1,62] - 3 m[14,1,63]
   - 500 c[14,15,0.0] >= -500
 R2109: c[14,15,-3.0] = 0
 R2110: c[14,15,-2.0] = 0
 R2111: c[14,15,-1.41504] = 0
 R2112: c[14,15,-1.0] = 0
 R2113: c[15,0,0.0] + c[15,0,-3.0] + c[15,0,-2.0] + c[15,0,-1.41504]
   + c[15,0,-1.0] = 1
 R2114: - m[15,1,0] - 500 c[15,0,0.0] >= -500
 R2115: 3 m[15,0,0] - 4 m[15,0,1] - 4 m[15,0,2] + 3 m[15,0,3] + 3 m[15,1,0]
   - 4 m[15,1,1] + 3 m[15,1,2] + 3 m[15,1,3] - 500 c[15,0,0.0] >= -500
 R2116: - 3 m[15,0,0] + 3 m[15,0,1] + 3 m[15,0,2] - 3 m[15,0,3]
   + 3 m[15,1,0] + 3 m[15,1,1] - 3 m[15,1,2] - 3 m[15,1,3]
   - 500 c[15,0,0.0] >= -500
 R2117: c[15,0,-3.0] = 0
 R2118: c[15,0,-2.0] = 0
 R2119: c[15,0,-1.41504] = 0
 R2120: c[15,0,-1.0] = 0
 R2121: c[15,1,0.0] + c[15,1,-3.0] + c[15,1,-2.0] + c[15,1,-1.41504]
   + c[15,1,-1.0] = 1
 R2122: - m[15,1,4] - 500 c[15,1,0.0] >= -500
 R2123: 3 m[15,0,4] - 4 m[15,0,5] - 4 m[15,0,6] + 3 m[15,0,7] + 3 m[15,1,4]
   - 4 m[15,1,5] + 3 m[15,1,6] + 3 m[15,1,7] - 500 c[15,1,0.0] >= -500
 R2124: - 3 m[15,0,4] + 3 m[15,0,5] + 3 m[15,0,6] - 3 m[15,0,7]
   + 3 m[15,1,4] + 3 m[15,1,5] - 3 m[15,1,6] - 3 m[15,1,7]
   - 500 c[15,1,0.0] >= -500
 R2125: c[15,1,-3.0] = 0
 R2126: c[15,1,-2.0] = 0
 R2127: c[15,1,-1.41504] = 0
 R2128: c[15,1,-1.0] = 0
 R2129: c[15,2,0.0] + c[15,2,-3.0] + c[15,2,-2.0] + c[15,2,-1.41504]
   + c[15,2,-1.0] = 1
 R2130: - m[15,1,8] - 500 c[15,2,0.0] >= -500
 R2131: 3 m[15,0,8] - 4 m[15,0,9] - 4 m[15,0,10] + 3 m[15,0,11]
   + 3 m[15,1,8] - 4 m[15,1,9] + 3 m[15,1,10] + 3 m[15,1,11]
   - 500 c[15,2,0.0] >= -500
 R2132: - 3 m[15,0,8] + 3 m[15,0,9] + 3 m[15,0,10] - 3 m[15,0,11]
   + 3 m[15,1,8] + 3 m[15,1,9] - 3 m[15,1,10] - 3 m[15,1,11]
   - 500 c[15,2,0.0] >= -500
 R2133: c[15,2,-3.0] = 0
 R2134: c[15,2,-2.0] = 0
 R2135: c[15,2,-1.41504] = 0
 R2136: c[15,2,-1.0] = 0
 R2137: c[15,3,0.0] + c[15,3,-3.0] + c[15,3,-2.0] + c[15,3,-1.41504]
   + c[15,3,-1.0] = 1
 R2138: - m[15,1,12] - 500 c[15,3,0.0] >= -500
 R2139: 3 m[15,0,12] - 4 m[15,0,13] - 4 m[15,0,14] + 3 m[15,0,15]
   + 3 m[15,1,12] - 4 m[15,1,13] + 3 m[15,1,14] + 3 m[15,1,15]
   - 500 c[15,3,0.0] >= -500
 R2140: - 3 m[15,0,12] + 3 m[15,0,13] + 3 m[15,0,14] - 3 m[15,0,15]
   + 3 m[15,1,12] + 3 m[15,1,13] - 3 m[15,1,14] - 3 m[15,1,15]
   - 500 c[15,3,0.0] >= -500
 R2141: c[15,3,-3.0] = 0
 R2142: c[15,3,-2.0] = 0
 R2143: c[15,3,-1.41504] = 0
 R2144: c[15,3,-1.0] = 0
 R2145: c[15,4,0.0] + c[15,4,-3.0] + c[15,4,-2.0] + c[15,4,-1.41504]
   + c[15,4,-1.0] = 1
 R2146: - m[15,1,16] - 500 c[15,4,0.0] >= -500
 R2147: 3 m[15,0,16] - 4 m[15,0,17] - 4 m[15,0,18] + 3 m[15,0,19]
   + 3 m[15,1,16] - 4 m[15,1,17] + 3 m[15,1,18] + 3 m[15,1,19]
   - 500 c[15,4,0.0] >= -500
 R2148: - 3 m[15,0,16] + 3 m[15,0,17] + 3 m[15,0,18] - 3 m[15,0,19]
   + 3 m[15,1,16] + 3 m[15,1,17] - 3 m[15,1,18] - 3 m[15,1,19]
   - 500 c[15,4,0.0] >= -500
 R2149: c[15,4,-3.0] = 0
 R2150: c[15,4,-2.0] = 0
 R2151: c[15,4,-1.41504] = 0
 R2152: c[15,4,-1.0] = 0
 R2153: c[15,5,0.0] + c[15,5,-3.0] + c[15,5,-2.0] + c[15,5,-1.41504]
   + c[15,5,-1.0] = 1
 R2154: - m[15,1,20] - 500 c[15,5,0.0] >= -500
 R2155: 3 m[15,0,20] - 4 m[15,0,21] - 4 m[15,0,22] + 3 m[15,0,23]
   + 3 m[15,1,20] - 4 m[15,1,21] + 3 m[15,1,22] + 3 m[15,1,23]
   - 500 c[15,5,0.0] >= -500
 R2156: - 3 m[15,0,20] + 3 m[15,0,21] + 3 m[15,0,22] - 3 m[15,0,23]
   + 3 m[15,1,20] + 3 m[15,1,21] - 3 m[15,1,22] - 3 m[15,1,23]
   - 500 c[15,5,0.0] >= -500
 R2157: c[15,5,-3.0] = 0
 R2158: c[15,5,-2.0] = 0
 R2159: c[15,5,-1.41504] = 0
 R2160: c[15,5,-1.0] = 0
 R2161: c[15,6,0.0] + c[15,6,-3.0] + c[15,6,-2.0] + c[15,6,-1.41504]
   + c[15,6,-1.0] = 1
 R2162: - m[15,1,24] - 500 c[15,6,0.0] >= -500
 R2163: 3 m[15,0,24] - 4 m[15,0,25] - 4 m[15,0,26] + 3 m[15,0,27]
   + 3 m[15,1,24] - 4 m[15,1,25] + 3 m[15,1,26] + 3 m[15,1,27]
   - 500 c[15,6,0.0] >= -500
 R2164: - 3 m[15,0,24] + 3 m[15,0,25] + 3 m[15,0,26] - 3 m[15,0,27]
   + 3 m[15,1,24] + 3 m[15,1,25] - 3 m[15,1,26] - 3 m[15,1,27]
   - 500 c[15,6,0.0] >= -500
 R2165: c[15,6,-3.0] = 0
 R2166: c[15,6,-2.0] = 0
 R2167: c[15,6,-1.41504] = 0
 R2168: c[15,6,-1.0] = 0
 R2169: c[15,7,0.0] + c[15,7,-3.0] + c[15,7,-2.0] + c[15,7,-1.41504]
   + c[15,7,-1.0] = 1
 R2170: - m[15,1,28] - 500 c[15,7,0.0] >= -500
 R2171: 3 m[15,0,28] - 4 m[15,0,29] - 4 m[15,0,30] + 3 m[15,0,31]
   + 3 m[15,1,28] - 4 m[15,1,29] + 3 m[15,1,30] + 3 m[15,1,31]
   - 500 c[15,7,0.0] >= -500
 R2172: - 3 m[15,0,28] + 3 m[15,0,29] + 3 m[15,0,30] - 3 m[15,0,31]
   + 3 m[15,1,28] + 3 m[15,1,29] - 3 m[15,1,30] - 3 m[15,1,31]
   - 500 c[15,7,0.0] >= -500
 R2173: c[15,7,-3.0] = 0
 R2174: c[15,7,-2.0] = 0
 R2175: c[15,7,-1.41504] = 0
 R2176: c[15,7,-1.0] = 0
 R2177: c[15,8,0.0] + c[15,8,-3.0] + c[15,8,-2.0] + c[15,8,-1.41504]
   + c[15,8,-1.0] = 1
 R2178: - m[15,1,32] - 500 c[15,8,0.0] >= -500
 R2179: 3 m[15,0,32] - 4 m[15,0,33] - 4 m[15,0,34] + 3 m[15,0,35]
   + 3 m[15,1,32] - 4 m[15,1,33] + 3 m[15,1,34] + 3 m[15,1,35]
   - 500 c[15,8,0.0] >= -500
 R2180: - 3 m[15,0,32] + 3 m[15,0,33] + 3 m[15,0,34] - 3 m[15,0,35]
   + 3 m[15,1,32] + 3 m[15,1,33] - 3 m[15,1,34] - 3 m[15,1,35]
   - 500 c[15,8,0.0] >= -500
 R2181: c[15,8,-3.0] = 0
 R2182: c[15,8,-2.0] = 0
 R2183: c[15,8,-1.41504] = 0
 R2184: c[15,8,-1.0] = 0
 R2185: c[15,9,0.0] + c[15,9,-3.0] + c[15,9,-2.0] + c[15,9,-1.41504]
   + c[15,9,-1.0] = 1
 R2186: - m[15,1,36] - 500 c[15,9,0.0] >= -500
 R2187: 3 m[15,0,36] - 4 m[15,0,37] - 4 m[15,0,38] + 3 m[15,0,39]
   + 3 m[15,1,36] - 4 m[15,1,37] + 3 m[15,1,38] + 3 m[15,1,39]
   - 500 c[15,9,0.0] >= -500
 R2188: - 3 m[15,0,36] + 3 m[15,0,37] + 3 m[15,0,38] - 3 m[15,0,39]
   + 3 m[15,1,36] + 3 m[15,1,37] - 3 m[15,1,38] - 3 m[15,1,39]
   - 500 c[15,9,0.0] >= -500
 R2189: c[15,9,-3.0] = 0
 R2190: c[15,9,-2.0] = 0
 R2191: c[15,9,-1.41504] = 0
 R2192: c[15,9,-1.0] = 0
 R2193: c[15,10,0.0] + c[15,10,-3.0] + c[15,10,-2.0] + c[15,10,-1.41504]
   + c[15,10,-1.0] = 1
 R2194: - m[15,1,40] - 500 c[15,10,0.0] >= -500
 R2195: 3 m[15,0,40] - 4 m[15,0,41] - 4 m[15,0,42] + 3 m[15,0,43]
   + 3 m[15,1,40] - 4 m[15,1,41] + 3 m[15,1,42] + 3 m[15,1,43]
   - 500 c[15,10,0.0] >= -500
 R2196: - 3 m[15,0,40] + 3 m[15,0,41] + 3 m[15,0,42] - 3 m[15,0,43]
   + 3 m[15,1,40] + 3 m[15,1,41] - 3 m[15,1,42] - 3 m[15,1,43]
   - 500 c[15,10,0.0] >= -500
 R2197: c[15,10,-3.0] = 0
 R2198: c[15,10,-2.0] = 0
 R2199: c[15,10,-1.41504] = 0
 R2200: c[15,10,-1.0] = 0
 R2201: c[15,11,0.0] + c[15,11,-3.0] + c[15,11,-2.0] + c[15,11,-1.41504]
   + c[15,11,-1.0] = 1
 R2202: - m[15,1,44] - 500 c[15,11,0.0] >= -500
 R2203: 3 m[15,0,44] - 4 m[15,0,45] - 4 m[15,0,46] + 3 m[15,0,47]
   + 3 m[15,1,44] - 4 m[15,1,45] + 3 m[15,1,46] + 3 m[15,1,47]
   - 500 c[15,11,0.0] >= -500
 R2204: - 3 m[15,0,44] + 3 m[15,0,45] + 3 m[15,0,46] - 3 m[15,0,47]
   + 3 m[15,1,44] + 3 m[15,1,45] - 3 m[15,1,46] - 3 m[15,1,47]
   - 500 c[15,11,0.0] >= -500
 R2205: c[15,11,-3.0] = 0
 R2206: c[15,11,-2.0] = 0
 R2207: c[15,11,-1.41504] = 0
 R2208: c[15,11,-1.0] = 0
 R2209: c[15,12,0.0] + c[15,12,-3.0] + c[15,12,-2.0] + c[15,12,-1.41504]
   + c[15,12,-1.0] = 1
 R2210: - m[15,1,48] - 500 c[15,12,0.0] >= -500
 R2211: 3 m[15,0,48] - 4 m[15,0,49] - 4 m[15,0,50] + 3 m[15,0,51]
   + 3 m[15,1,48] - 4 m[15,1,49] + 3 m[15,1,50] + 3 m[15,1,51]
   - 500 c[15,12,0.0] >= -500
 R2212: - 3 m[15,0,48] + 3 m[15,0,49] + 3 m[15,0,50] - 3 m[15,0,51]
   + 3 m[15,1,48] + 3 m[15,1,49] - 3 m[15,1,50] - 3 m[15,1,51]
   - 500 c[15,12,0.0] >= -500
 R2213: c[15,12,-3.0] = 0
 R2214: c[15,12,-2.0] = 0
 R2215: c[15,12,-1.41504] = 0
 R2216: c[15,12,-1.0] = 0
 R2217: c[15,13,0.0] + c[15,13,-3.0] + c[15,13,-2.0] + c[15,13,-1.41504]
   + c[15,13,-1.0] = 1
 R2218: - m[15,1,52] - 500 c[15,13,0.0] >= -500
 R2219: 3 m[15,0,52] - 4 m[15,0,53] - 4 m[15,0,54] + 3 m[15,0,55]
   + 3 m[15,1,52] - 4 m[15,1,53] + 3 m[15,1,54] + 3 m[15,1,55]
   - 500 c[15,13,0.0] >= -500
 R2220: - 3 m[15,0,52] + 3 m[15,0,53] + 3 m[15,0,54] - 3 m[15,0,55]
   + 3 m[15,1,52] + 3 m[15,1,53] - 3 m[15,1,54] - 3 m[15,1,55]
   - 500 c[15,13,0.0] >= -500
 R2221: c[15,13,-3.0] = 0
 R2222: c[15,13,-2.0] = 0
 R2223: c[15,13,-1.41504] = 0
 R2224: c[15,13,-1.0] = 0
 R2225: c[15,14,0.0] + c[15,14,-3.0] + c[15,14,-2.0] + c[15,14,-1.41504]
   + c[15,14,-1.0] = 1
 R2226: - m[15,1,56] - 500 c[15,14,0.0] >= -500
 R2227: 3 m[15,0,56] - 4 m[15,0,57] - 4 m[15,0,58] + 3 m[15,0,59]
   + 3 m[15,1,56] - 4 m[15,1,57] + 3 m[15,1,58] + 3 m[15,1,59]
   - 500 c[15,14,0.0] >= -500
 R2228: - 3 m[15,0,56] + 3 m[15,0,57] + 3 m[15,0,58] - 3 m[15,0,59]
   + 3 m[15,1,56] + 3 m[15,1,57] - 3 m[15,1,58] - 3 m[15,1,59]
   - 500 c[15,14,0.0] >= -500
 R2229: c[15,14,-3.0] = 0
 R2230: c[15,14,-2.0] = 0
 R2231: c[15,14,-1.41504] = 0
 R2232: c[15,14,-1.0] = 0
 R2233: c[15,15,0.0] + c[15,15,-3.0] + c[15,15,-2.0] + c[15,15,-1.41504]
   + c[15,15,-1.0] = 1
 R2234: - m[15,1,60] - 500 c[15,15,0.0] >= -500
 R2235: 3 m[15,0,60] - 4 m[15,0,61] - 4 m[15,0,62] + 3 m[15,0,63]
   + 3 m[15,1,60] - 4 m[15,1,61] + 3 m[15,1,62] + 3 m[15,1,63]
   - 500 c[15,15,0.0] >= -500
 R2236: - 3 m[15,0,60] + 3 m[15,0,61] + 3 m[15,0,62] - 3 m[15,0,63]
   + 3 m[15,1,60] + 3 m[15,1,61] - 3 m[15,1,62] - 3 m[15,1,63]
   - 500 c[15,15,0.0] >= -500
 R2237: c[15,15,-3.0] = 0
 R2238: c[15,15,-2.0] = 0
 R2239: c[15,15,-1.41504] = 0
 R2240: c[15,15,-1.0] = 0
 R2241: c[16,0,0.0] + c[16,0,-3.0] + c[16,0,-2.0] + c[16,0,-1.41504]
   + c[16,0,-1.0] = 1
 R2242: - m[16,1,0] - 500 c[16,0,0.0] >= -500
 R2243: 3 m[16,0,0] - 4 m[16,0,1] - 4 m[16,0,2] + 3 m[16,0,3] + 3 m[16,1,0]
   - 4 m[16,1,1] + 3 m[16,1,2] + 3 m[16,1,3] - 500 c[16,0,0.0] >= -500
 R2244: - 3 m[16,0,0] + 3 m[16,0,1] + 3 m[16,0,2] - 3 m[16,0,3]
   + 3 m[16,1,0] + 3 m[16,1,1] - 3 m[16,1,2] - 3 m[16,1,3]
   - 500 c[16,0,0.0] >= -500
 R2245: c[16,0,-3.0] = 0
 R2246: c[16,0,-2.0] = 0
 R2247: c[16,0,-1.41504] = 0
 R2248: c[16,0,-1.0] = 0
 R2249: c[16,1,0.0] + c[16,1,-3.0] + c[16,1,-2.0] + c[16,1,-1.41504]
   + c[16,1,-1.0] = 1
 R2250: - m[16,1,4] - 500 c[16,1,0.0] >= -500
 R2251: 3 m[16,0,4] - 4 m[16,0,5] - 4 m[16,0,6] + 3 m[16,0,7] + 3 m[16,1,4]
   - 4 m[16,1,5] + 3 m[16,1,6] + 3 m[16,1,7] - 500 c[16,1,0.0] >= -500
 R2252: - 3 m[16,0,4] + 3 m[16,0,5] + 3 m[16,0,6] - 3 m[16,0,7]
   + 3 m[16,1,4] + 3 m[16,1,5] - 3 m[16,1,6] - 3 m[16,1,7]
   - 500 c[16,1,0.0] >= -500
 R2253: c[16,1,-3.0] = 0
 R2254: c[16,1,-2.0] = 0
 R2255: c[16,1,-1.41504] = 0
 R2256: c[16,1,-1.0] = 0
 R2257: c[16,2,0.0] + c[16,2,-3.0] + c[16,2,-2.0] + c[16,2,-1.41504]
   + c[16,2,-1.0] = 1
 R2258: - m[16,1,8] - 500 c[16,2,0.0] >= -500
 R2259: 3 m[16,0,8] - 4 m[16,0,9] - 4 m[16,0,10] + 3 m[16,0,11]
   + 3 m[16,1,8] - 4 m[16,1,9] + 3 m[16,1,10] + 3 m[16,1,11]
   - 500 c[16,2,0.0] >= -500
 R2260: - 3 m[16,0,8] + 3 m[16,0,9] + 3 m[16,0,10] - 3 m[16,0,11]
   + 3 m[16,1,8] + 3 m[16,1,9] - 3 m[16,1,10] - 3 m[16,1,11]
   - 500 c[16,2,0.0] >= -500
 R2261: c[16,2,-3.0] = 0
 R2262: c[16,2,-2.0] = 0
 R2263: c[16,2,-1.41504] = 0
 R2264: c[16,2,-1.0] = 0
 R2265: c[16,3,0.0] + c[16,3,-3.0] + c[16,3,-2.0] + c[16,3,-1.41504]
   + c[16,3,-1.0] = 1
 R2266: - m[16,1,12] - 500 c[16,3,0.0] >= -500
 R2267: 3 m[16,0,12] - 4 m[16,0,13] - 4 m[16,0,14] + 3 m[16,0,15]
   + 3 m[16,1,12] - 4 m[16,1,13] + 3 m[16,1,14] + 3 m[16,1,15]
   - 500 c[16,3,0.0] >= -500
 R2268: - 3 m[16,0,12] + 3 m[16,0,13] + 3 m[16,0,14] - 3 m[16,0,15]
   + 3 m[16,1,12] + 3 m[16,1,13] - 3 m[16,1,14] - 3 m[16,1,15]
   - 500 c[16,3,0.0] >= -500
 R2269: c[16,3,-3.0] = 0
 R2270: c[16,3,-2.0] = 0
 R2271: c[16,3,-1.41504] = 0
 R2272: c[16,3,-1.0] = 0
 R2273: c[16,4,0.0] + c[16,4,-3.0] + c[16,4,-2.0] + c[16,4,-1.41504]
   + c[16,4,-1.0] = 1
 R2274: - m[16,1,16] - 500 c[16,4,0.0] >= -500
 R2275: 3 m[16,0,16] - 4 m[16,0,17] - 4 m[16,0,18] + 3 m[16,0,19]
   + 3 m[16,1,16] - 4 m[16,1,17] + 3 m[16,1,18] + 3 m[16,1,19]
   - 500 c[16,4,0.0] >= -500
 R2276: - 3 m[16,0,16] + 3 m[16,0,17] + 3 m[16,0,18] - 3 m[16,0,19]
   + 3 m[16,1,16] + 3 m[16,1,17] - 3 m[16,1,18] - 3 m[16,1,19]
   - 500 c[16,4,0.0] >= -500
 R2277: c[16,4,-3.0] = 0
 R2278: c[16,4,-2.0] = 0
 R2279: c[16,4,-1.41504] = 0
 R2280: c[16,4,-1.0] = 0
 R2281: c[16,5,0.0] + c[16,5,-3.0] + c[16,5,-2.0] + c[16,5,-1.41504]
   + c[16,5,-1.0] = 1
 R2282: - m[16,1,20] - 500 c[16,5,0.0] >= -500
 R2283: 3 m[16,0,20] - 4 m[16,0,21] - 4 m[16,0,22] + 3 m[16,0,23]
   + 3 m[16,1,20] - 4 m[16,1,21] + 3 m[16,1,22] + 3 m[16,1,23]
   - 500 c[16,5,0.0] >= -500
 R2284: - 3 m[16,0,20] + 3 m[16,0,21] + 3 m[16,0,22] - 3 m[16,0,23]
   + 3 m[16,1,20] + 3 m[16,1,21] - 3 m[16,1,22] - 3 m[16,1,23]
   - 500 c[16,5,0.0] >= -500
 R2285: c[16,5,-3.0] = 0
 R2286: c[16,5,-2.0] = 0
 R2287: c[16,5,-1.41504] = 0
 R2288: c[16,5,-1.0] = 0
 R2289: c[16,6,0.0] + c[16,6,-3.0] + c[16,6,-2.0] + c[16,6,-1.41504]
   + c[16,6,-1.0] = 1
 R2290: - m[16,1,24] - 500 c[16,6,0.0] >= -500
 R2291: 3 m[16,0,24] - 4 m[16,0,25] - 4 m[16,0,26] + 3 m[16,0,27]
   + 3 m[16,1,24] - 4 m[16,1,25] + 3 m[16,1,26] + 3 m[16,1,27]
   - 500 c[16,6,0.0] >= -500
 R2292: - 3 m[16,0,24] + 3 m[16,0,25] + 3 m[16,0,26] - 3 m[16,0,27]
   + 3 m[16,1,24] + 3 m[16,1,25] - 3 m[16,1,26] - 3 m[16,1,27]
   - 500 c[16,6,0.0] >= -500
 R2293: c[16,6,-3.0] = 0
 R2294: c[16,6,-2.0] = 0
 R2295: c[16,6,-1.41504] = 0
 R2296: c[16,6,-1.0] = 0
 R2297: c[16,7,0.0] + c[16,7,-3.0] + c[16,7,-2.0] + c[16,7,-1.41504]
   + c[16,7,-1.0] = 1
 R2298: - m[16,1,28] - 500 c[16,7,0.0] >= -500
 R2299: 3 m[16,0,28] - 4 m[16,0,29] - 4 m[16,0,30] + 3 m[16,0,31]
   + 3 m[16,1,28] - 4 m[16,1,29] + 3 m[16,1,30] + 3 m[16,1,31]
   - 500 c[16,7,0.0] >= -500
 R2300: - 3 m[16,0,28] + 3 m[16,0,29] + 3 m[16,0,30] - 3 m[16,0,31]
   + 3 m[16,1,28] + 3 m[16,1,29] - 3 m[16,1,30] - 3 m[16,1,31]
   - 500 c[16,7,0.0] >= -500
 R2301: c[16,7,-3.0] = 0
 R2302: c[16,7,-2.0] = 0
 R2303: c[16,7,-1.41504] = 0
 R2304: c[16,7,-1.0] = 0
 R2305: c[16,8,0.0] + c[16,8,-3.0] + c[16,8,-2.0] + c[16,8,-1.41504]
   + c[16,8,-1.0] = 1
 R2306: - m[16,1,32] - 500 c[16,8,0.0] >= -500
 R2307: 3 m[16,0,32] - 4 m[16,0,33] - 4 m[16,0,34] + 3 m[16,0,35]
   + 3 m[16,1,32] - 4 m[16,1,33] + 3 m[16,1,34] + 3 m[16,1,35]
   - 500 c[16,8,0.0] >= -500
 R2308: - 3 m[16,0,32] + 3 m[16,0,33] + 3 m[16,0,34] - 3 m[16,0,35]
   + 3 m[16,1,32] + 3 m[16,1,33] - 3 m[16,1,34] - 3 m[16,1,35]
   - 500 c[16,8,0.0] >= -500
 R2309: c[16,8,-3.0] = 0
 R2310: c[16,8,-2.0] = 0
 R2311: c[16,8,-1.41504] = 0
 R2312: c[16,8,-1.0] = 0
 R2313: c[16,9,0.0] + c[16,9,-3.0] + c[16,9,-2.0] + c[16,9,-1.41504]
   + c[16,9,-1.0] = 1
 R2314: - m[16,1,36] - 500 c[16,9,0.0] >= -500
 R2315: 3 m[16,0,36] - 4 m[16,0,37] - 4 m[16,0,38] + 3 m[16,0,39]
   + 3 m[16,1,36] - 4 m[16,1,37] + 3 m[16,1,38] + 3 m[16,1,39]
   - 500 c[16,9,0.0] >= -500
 R2316: - 3 m[16,0,36] + 3 m[16,0,37] + 3 m[16,0,38] - 3 m[16,0,39]
   + 3 m[16,1,36] + 3 m[16,1,37] - 3 m[16,1,38] - 3 m[16,1,39]
   - 500 c[16,9,0.0] >= -500
 R2317: c[16,9,-3.0] = 0
 R2318: c[16,9,-2.0] = 0
 R2319: c[16,9,-1.41504] = 0
 R2320: c[16,9,-1.0] = 0
 R2321: c[16,10,0.0] + c[16,10,-3.0] + c[16,10,-2.0] + c[16,10,-1.41504]
   + c[16,10,-1.0] = 1
 R2322: - m[16,1,40] - 500 c[16,10,0.0] >= -500
 R2323: 3 m[16,0,40] - 4 m[16,0,41] - 4 m[16,0,42] + 3 m[16,0,43]
   + 3 m[16,1,40] - 4 m[16,1,41] + 3 m[16,1,42] + 3 m[16,1,43]
   - 500 c[16,10,0.0] >= -500
 R2324: - 3 m[16,0,40] + 3 m[16,0,41] + 3 m[16,0,42] - 3 m[16,0,43]
   + 3 m[16,1,40] + 3 m[16,1,41] - 3 m[16,1,42] - 3 m[16,1,43]
   - 500 c[16,10,0.0] >= -500
 R2325: c[16,10,-3.0] = 0
 R2326: c[16,10,-2.0] = 0
 R2327: c[16,10,-1.41504] = 0
 R2328: c[16,10,-1.0] = 0
 R2329: c[16,11,0.0] + c[16,11,-3.0] + c[16,11,-2.0] + c[16,11,-1.41504]
   + c[16,11,-1.0] = 1
 R2330: - m[16,1,44] - 500 c[16,11,0.0] >= -500
 R2331: 3 m[16,0,44] - 4 m[16,0,45] - 4 m[16,0,46] + 3 m[16,0,47]
   + 3 m[16,1,44] - 4 m[16,1,45] + 3 m[16,1,46] + 3 m[16,1,47]
   - 500 c[16,11,0.0] >= -500
 R2332: - 3 m[16,0,44] + 3 m[16,0,45] + 3 m[16,0,46] - 3 m[16,0,47]
   + 3 m[16,1,44] + 3 m[16,1,45] - 3 m[16,1,46] - 3 m[16,1,47]
   - 500 c[16,11,0.0] >= -500
 R2333: c[16,11,-3.0] = 0
 R2334: c[16,11,-2.0] = 0
 R2335: c[16,11,-1.41504] = 0
 R2336: c[16,11,-1.0] = 0
 R2337: c[16,12,0.0] + c[16,12,-3.0] + c[16,12,-2.0] + c[16,12,-1.41504]
   + c[16,12,-1.0] = 1
 R2338: - m[16,1,48] - 500 c[16,12,0.0] >= -500
 R2339: 3 m[16,0,48] - 4 m[16,0,49] - 4 m[16,0,50] + 3 m[16,0,51]
   + 3 m[16,1,48] - 4 m[16,1,49] + 3 m[16,1,50] + 3 m[16,1,51]
   - 500 c[16,12,0.0] >= -500
 R2340: - 3 m[16,0,48] + 3 m[16,0,49] + 3 m[16,0,50] - 3 m[16,0,51]
   + 3 m[16,1,48] + 3 m[16,1,49] - 3 m[16,1,50] - 3 m[16,1,51]
   - 500 c[16,12,0.0] >= -500
 R2341: c[16,12,-3.0] = 0
 R2342: c[16,12,-2.0] = 0
 R2343: c[16,12,-1.41504] = 0
 R2344: c[16,12,-1.0] = 0
 R2345: c[16,13,0.0] + c[16,13,-3.0] + c[16,13,-2.0] + c[16,13,-1.41504]
   + c[16,13,-1.0] = 1
 R2346: - m[16,1,52] - 500 c[16,13,0.0] >= -500
 R2347: 3 m[16,0,52] - 4 m[16,0,53] - 4 m[16,0,54] + 3 m[16,0,55]
   + 3 m[16,1,52] - 4 m[16,1,53] + 3 m[16,1,54] + 3 m[16,1,55]
   - 500 c[16,13,0.0] >= -500
 R2348: - 3 m[16,0,52] + 3 m[16,0,53] + 3 m[16,0,54] - 3 m[16,0,55]
   + 3 m[16,1,52] + 3 m[16,1,53] - 3 m[16,1,54] - 3 m[16,1,55]
   - 500 c[16,13,0.0] >= -500
 R2349: c[16,13,-3.0] = 0
 R2350: c[16,13,-2.0] = 0
 R2351: c[16,13,-1.41504] = 0
 R2352: c[16,13,-1.0] = 0
 R2353: c[16,14,0.0] + c[16,14,-3.0] + c[16,14,-2.0] + c[16,14,-1.41504]
   + c[16,14,-1.0] = 1
 R2354: - m[16,1,56] - 500 c[16,14,0.0] >= -500
 R2355: 3 m[16,0,56] - 4 m[16,0,57] - 4 m[16,0,58] + 3 m[16,0,59]
   + 3 m[16,1,56] - 4 m[16,1,57] + 3 m[16,1,58] + 3 m[16,1,59]
   - 500 c[16,14,0.0] >= -500
 R2356: - 3 m[16,0,56] + 3 m[16,0,57] + 3 m[16,0,58] - 3 m[16,0,59]
   + 3 m[16,1,56] + 3 m[16,1,57] - 3 m[16,1,58] - 3 m[16,1,59]
   - 500 c[16,14,0.0] >= -500
 R2357: c[16,14,-3.0] = 0
 R2358: c[16,14,-2.0] = 0
 R2359: c[16,14,-1.41504] = 0
 R2360: c[16,14,-1.0] = 0
 R2361: c[16,15,0.0] + c[16,15,-3.0] + c[16,15,-2.0] + c[16,15,-1.41504]
   + c[16,15,-1.0] = 1
 R2362: - m[16,1,60] - 500 c[16,15,0.0] >= -500
 R2363: 3 m[16,0,60] - 4 m[16,0,61] - 4 m[16,0,62] + 3 m[16,0,63]
   + 3 m[16,1,60] - 4 m[16,1,61] + 3 m[16,1,62] + 3 m[16,1,63]
   - 500 c[16,15,0.0] >= -500
 R2364: - 3 m[16,0,60] + 3 m[16,0,61] + 3 m[16,0,62] - 3 m[16,0,63]
   + 3 m[16,1,60] + 3 m[16,1,61] - 3 m[16,1,62] - 3 m[16,1,63]
   - 500 c[16,15,0.0] >= -500
 R2365: c[16,15,-3.0] = 0
 R2366: c[16,15,-2.0] = 0
 R2367: c[16,15,-1.41504] = 0
 R2368: c[16,15,-1.0] = 0
 R2369: c[17,0,0.0] + c[17,0,-3.0] + c[17,0,-2.0] + c[17,0,-1.41504]
   + c[17,0,-1.0] = 1
 R2370: - m[17,1,0] - 500 c[17,0,0.0] >= -500
 R2371: 3 m[17,0,0] - 4 m[17,0,1] - 4 m[17,0,2] + 3 m[17,0,3] + 3 m[17,1,0]
   - 4 m[17,1,1] + 3 m[17,1,2] + 3 m[17,1,3] - 500 c[17,0,0.0] >= -500
 R2372: - 3 m[17,0,0] + 3 m[17,0,1] + 3 m[17,0,2] - 3 m[17,0,3]
   + 3 m[17,1,0] + 3 m[17,1,1] - 3 m[17,1,2] - 3 m[17,1,3]
   - 500 c[17,0,0.0] >= -500
 R2373: c[17,0,-3.0] = 0
 R2374: c[17,0,-2.0] = 0
 R2375: c[17,0,-1.41504] = 0
 R2376: c[17,0,-1.0] = 0
 R2377: c[17,1,0.0] + c[17,1,-3.0] + c[17,1,-2.0] + c[17,1,-1.41504]
   + c[17,1,-1.0] = 1
 R2378: - m[17,1,4] - 500 c[17,1,0.0] >= -500
 R2379: 3 m[17,0,4] - 4 m[17,0,5] - 4 m[17,0,6] + 3 m[17,0,7] + 3 m[17,1,4]
   - 4 m[17,1,5] + 3 m[17,1,6] + 3 m[17,1,7] - 500 c[17,1,0.0] >= -500
 R2380: - 3 m[17,0,4] + 3 m[17,0,5] + 3 m[17,0,6] - 3 m[17,0,7]
   + 3 m[17,1,4] + 3 m[17,1,5] - 3 m[17,1,6] - 3 m[17,1,7]
   - 500 c[17,1,0.0] >= -500
 R2381: c[17,1,-3.0] = 0
 R2382: c[17,1,-2.0] = 0
 R2383: c[17,1,-1.41504] = 0
 R2384: c[17,1,-1.0] = 0
 R2385: c[17,2,0.0] + c[17,2,-3.0] + c[17,2,-2.0] + c[17,2,-1.41504]
   + c[17,2,-1.0] = 1
 R2386: c[17,2,0.0] = 0
 R2387: c[17,2,-3.0] = 0
 R2388: - m[17,0,10] - m[17,1,9] - m[17,1,11] - 500 c[17,2,-2.0] >= -502
 R2389: m[17,0,10] - m[17,1,9] + m[17,1,11] - 500 c[17,2,-2.0] >= -500
 R2390: m[17,0,9] + m[17,0,10] - m[17,1,10] - 500 c[17,2,-2.0] >= -500
 R2391: m[17,0,10] + m[17,1,9] - m[17,1,11] - 500 c[17,2,-2.0] >= -500
 R2392: - m[17,0,9] - m[17,0,10] - m[17,1,10] - 500 c[17,2,-2.0] >= -502
 R2393: - m[17,0,9] + m[17,0,10] + m[17,1,10] - 500 c[17,2,-2.0] >= -500
 R2394: - m[17,0,10] + m[17,1,9] + m[17,1,11] - 500 c[17,2,-2.0] >= -500
 R2395: m[17,0,9] - m[17,0,10] + m[17,1,10] - 500 c[17,2,-2.0] >= -500
 R2396: c[17,2,-1.41504] = 0
 R2397: c[17,2,-1.0] = 0
 R2398: c[17,3,0.0] + c[17,3,-3.0] + c[17,3,-2.0] + c[17,3,-1.41504]
   + c[17,3,-1.0] = 1
 R2399: - m[17,1,12] - 500 c[17,3,0.0] >= -500
 R2400: 3 m[17,0,12] - 4 m[17,0,13] - 4 m[17,0,14] + 3 m[17,0,15]
   + 3 m[17,1,12] - 4 m[17,1,13] + 3 m[17,1,14] + 3 m[17,1,15]
   - 500 c[17,3,0.0] >= -500
 R2401: - 3 m[17,0,12] + 3 m[17,0,13] + 3 m[17,0,14] - 3 m[17,0,15]
   + 3 m[17,1,12] + 3 m[17,1,13] - 3 m[17,1,14] - 3 m[17,1,15]
   - 500 c[17,3,0.0] >= -500
 R2402: c[17,3,-3.0] = 0
 R2403: c[17,3,-2.0] = 0
 R2404: c[17,3,-1.41504] = 0
 R2405: c[17,3,-1.0] = 0
 R2406: c[17,4,0.0] + c[17,4,-3.0] + c[17,4,-2.0] + c[17,4,-1.41504]
   + c[17,4,-1.0] = 1
 R2407: c[17,4,0.0] = 0
 R2408: c[17,4,-3.0] = 0
 R2409: - m[17,0,18] - m[17,1,17] - m[17,1,19] - 500 c[17,4,-2.0] >= -502
 R2410: m[17,0,18] - m[17,1,17] + m[17,1,19] - 500 c[17,4,-2.0] >= -500
 R2411: m[17,0,17] + m[17,0,18] - m[17,1,18] - 500 c[17,4,-2.0] >= -500
 R2412: m[17,0,18] + m[17,1,17] - m[17,1,19] - 500 c[17,4,-2.0] >= -500
 R2413: - m[17,0,17] - m[17,0,18] - m[17,1,18] - 500 c[17,4,-2.0] >= -502
 R2414: - m[17,0,17] + m[17,0,18] + m[17,1,18] - 500 c[17,4,-2.0] >= -500
 R2415: - m[17,0,18] + m[17,1,17] + m[17,1,19] - 500 c[17,4,-2.0] >= -500
 R2416: m[17,0,17] - m[17,0,18] + m[17,1,18] - 500 c[17,4,-2.0] >= -500
 R2417: c[17,4,-1.41504] = 0
 R2418: c[17,4,-1.0] = 0
 R2419: c[17,5,0.0] + c[17,5,-3.0] + c[17,5,-2.0] + c[17,5,-1.41504]
   + c[17,5,-1.0] = 1
 R2420: - m[17,1,20] - 500 c[17,5,0.0] >= -500
 R2421: 3 m[17,0,20] - 4 m[17,0,21] - 4 m[17,0,22] + 3 m[17,0,23]
   + 3 m[17,1,20] - 4 m[17,1,21] + 3 m[17,1,22] + 3 m[17,1,23]
   - 500 c[17,5,0.0] >= -500
 R2422: - 3 m[17,0,20] + 3 m[17,0,21] + 3 m[17,0,22] - 3 m[17,0,23]
   + 3 m[17,1,20] + 3 m[17,1,21] - 3 m[17,1,22] - 3 m[17,1,23]
   - 500 c[17,5,0.0] >= -500
 R2423: c[17,5,-3.0] = 0
 R2424: c[17,5,-2.0] = 0
 R2425: c[17,5,-1.41504] = 0
 R2426: c[17,5,-1.0] = 0
 R2427: c[17,6,0.0] + c[17,6,-3.0] + c[17,6,-2.0] + c[17,6,-1.41504]
   + c[17,6,-1.0] = 1
 R2428: - m[17,1,24] - 500 c[17,6,0.0] >= -500
 R2429: 3 m[17,0,24] - 4 m[17,0,25] - 4 m[17,0,26] + 3 m[17,0,27]
   + 3 m[17,1,24] - 4 m[17,1,25] + 3 m[17,1,26] + 3 m[17,1,27]
   - 500 c[17,6,0.0] >= -500
 R2430: - 3 m[17,0,24] + 3 m[17,0,25] + 3 m[17,0,26] - 3 m[17,0,27]
   + 3 m[17,1,24] + 3 m[17,1,25] - 3 m[17,1,26] - 3 m[17,1,27]
   - 500 c[17,6,0.0] >= -500
 R2431: c[17,6,-3.0] = 0
 R2432: c[17,6,-2.0] = 0
 R2433: c[17,6,-1.41504] = 0
 R2434: c[17,6,-1.0] = 0
 R2435: c[17,7,0.0] + c[17,7,-3.0] + c[17,7,-2.0] + c[17,7,-1.41504]
   + c[17,7,-1.0] = 1
 R2436: - m[17,1,28] - 500 c[17,7,0.0] >= -500
 R2437: 3 m[17,0,28] - 4 m[17,0,29] - 4 m[17,0,30] + 3 m[17,0,31]
   + 3 m[17,1,28] - 4 m[17,1,29] + 3 m[17,1,30] + 3 m[17,1,31]
   - 500 c[17,7,0.0] >= -500
 R2438: - 3 m[17,0,28] + 3 m[17,0,29] + 3 m[17,0,30] - 3 m[17,0,31]
   + 3 m[17,1,28] + 3 m[17,1,29] - 3 m[17,1,30] - 3 m[17,1,31]
   - 500 c[17,7,0.0] >= -500
 R2439: c[17,7,-3.0] = 0
 R2440: c[17,7,-2.0] = 0
 R2441: c[17,7,-1.41504] = 0
 R2442: c[17,7,-1.0] = 0
 R2443: c[17,8,0.0] + c[17,8,-3.0] + c[17,8,-2.0] + c[17,8,-1.41504]
   + c[17,8,-1.0] = 1
 R2444: - m[17,1,32] - 500 c[17,8,0.0] >= -500
 R2445: 3 m[17,0,32] - 4 m[17,0,33] - 4 m[17,0,34] + 3 m[17,0,35]
   + 3 m[17,1,32] - 4 m[17,1,33] + 3 m[17,1,34] + 3 m[17,1,35]
   - 500 c[17,8,0.0] >= -500
 R2446: - 3 m[17,0,32] + 3 m[17,0,33] + 3 m[17,0,34] - 3 m[17,0,35]
   + 3 m[17,1,32] + 3 m[17,1,33] - 3 m[17,1,34] - 3 m[17,1,35]
   - 500 c[17,8,0.0] >= -500
 R2447: c[17,8,-3.0] = 0
 R2448: c[17,8,-2.0] = 0
 R2449: c[17,8,-1.41504] = 0
 R2450: c[17,8,-1.0] = 0
 R2451: c[17,9,0.0] + c[17,9,-3.0] + c[17,9,-2.0] + c[17,9,-1.41504]
   + c[17,9,-1.0] = 1
 R2452: - m[17,1,36] - 500 c[17,9,0.0] >= -500
 R2453: 3 m[17,0,36] - 4 m[17,0,37] - 4 m[17,0,38] + 3 m[17,0,39]
   + 3 m[17,1,36] - 4 m[17,1,37] + 3 m[17,1,38] + 3 m[17,1,39]
   - 500 c[17,9,0.0] >= -500
 R2454: - 3 m[17,0,36] + 3 m[17,0,37] + 3 m[17,0,38] - 3 m[17,0,39]
   + 3 m[17,1,36] + 3 m[17,1,37] - 3 m[17,1,38] - 3 m[17,1,39]
   - 500 c[17,9,0.0] >= -500
 R2455: c[17,9,-3.0] = 0
 R2456: c[17,9,-2.0] = 0
 R2457: c[17,9,-1.41504] = 0
 R2458: c[17,9,-1.0] = 0
 R2459: c[17,10,0.0] + c[17,10,-3.0] + c[17,10,-2.0] + c[17,10,-1.41504]
   + c[17,10,-1.0] = 1
 R2460: - m[17,1,40] - 500 c[17,10,0.0] >= -500
 R2461: 3 m[17,0,40] - 4 m[17,0,41] - 4 m[17,0,42] + 3 m[17,0,43]
   + 3 m[17,1,40] - 4 m[17,1,41] + 3 m[17,1,42] + 3 m[17,1,43]
   - 500 c[17,10,0.0] >= -500
 R2462: - 3 m[17,0,40] + 3 m[17,0,41] + 3 m[17,0,42] - 3 m[17,0,43]
   + 3 m[17,1,40] + 3 m[17,1,41] - 3 m[17,1,42] - 3 m[17,1,43]
   - 500 c[17,10,0.0] >= -500
 R2463: c[17,10,-3.0] = 0
 R2464: c[17,10,-2.0] = 0
 R2465: c[17,10,-1.41504] = 0
 R2466: c[17,10,-1.0] = 0
 R2467: c[17,11,0.0] + c[17,11,-3.0] + c[17,11,-2.0] + c[17,11,-1.41504]
   + c[17,11,-1.0] = 1
 R2468: - m[17,1,44] - 500 c[17,11,0.0] >= -500
 R2469: 3 m[17,0,44] - 4 m[17,0,45] - 4 m[17,0,46] + 3 m[17,0,47]
   + 3 m[17,1,44] - 4 m[17,1,45] + 3 m[17,1,46] + 3 m[17,1,47]
   - 500 c[17,11,0.0] >= -500
 R2470: - 3 m[17,0,44] + 3 m[17,0,45] + 3 m[17,0,46] - 3 m[17,0,47]
   + 3 m[17,1,44] + 3 m[17,1,45] - 3 m[17,1,46] - 3 m[17,1,47]
   - 500 c[17,11,0.0] >= -500
 R2471: c[17,11,-3.0] = 0
 R2472: c[17,11,-2.0] = 0
 R2473: c[17,11,-1.41504] = 0
 R2474: c[17,11,-1.0] = 0
 R2475: c[17,12,0.0] + c[17,12,-3.0] + c[17,12,-2.0] + c[17,12,-1.41504]
   + c[17,12,-1.0] = 1
 R2476: - m[17,1,48] - 500 c[17,12,0.0] >= -500
 R2477: 3 m[17,0,48] - 4 m[17,0,49] - 4 m[17,0,50] + 3 m[17,0,51]
   + 3 m[17,1,48] - 4 m[17,1,49] + 3 m[17,1,50] + 3 m[17,1,51]
   - 500 c[17,12,0.0] >= -500
 R2478: - 3 m[17,0,48] + 3 m[17,0,49] + 3 m[17,0,50] - 3 m[17,0,51]
   + 3 m[17,1,48] + 3 m[17,1,49] - 3 m[17,1,50] - 3 m[17,1,51]
   - 500 c[17,12,0.0] >= -500
 R2479: c[17,12,-3.0] = 0
 R2480: c[17,12,-2.0] = 0
 R2481: c[17,12,-1.41504] = 0
 R2482: c[17,12,-1.0] = 0
 R2483: c[17,13,0.0] + c[17,13,-3.0] + c[17,13,-2.0] + c[17,13,-1.41504]
   + c[17,13,-1.0] = 1
 R2484: - m[17,1,52] - 500 c[17,13,0.0] >= -500
 R2485: 3 m[17,0,52] - 4 m[17,0,53] - 4 m[17,0,54] + 3 m[17,0,55]
   + 3 m[17,1,52] - 4 m[17,1,53] + 3 m[17,1,54] + 3 m[17,1,55]
   - 500 c[17,13,0.0] >= -500
 R2486: - 3 m[17,0,52] + 3 m[17,0,53] + 3 m[17,0,54] - 3 m[17,0,55]
   + 3 m[17,1,52] + 3 m[17,1,53] - 3 m[17,1,54] - 3 m[17,1,55]
   - 500 c[17,13,0.0] >= -500
 R2487: c[17,13,-3.0] = 0
 R2488: c[17,13,-2.0] = 0
 R2489: c[17,13,-1.41504] = 0
 R2490: c[17,13,-1.0] = 0
 R2491: c[17,14,0.0] + c[17,14,-3.0] + c[17,14,-2.0] + c[17,14,-1.41504]
   + c[17,14,-1.0] = 1
 R2492: - m[17,1,56] - 500 c[17,14,0.0] >= -500
 R2493: 3 m[17,0,56] - 4 m[17,0,57] - 4 m[17,0,58] + 3 m[17,0,59]
   + 3 m[17,1,56] - 4 m[17,1,57] + 3 m[17,1,58] + 3 m[17,1,59]
   - 500 c[17,14,0.0] >= -500
 R2494: - 3 m[17,0,56] + 3 m[17,0,57] + 3 m[17,0,58] - 3 m[17,0,59]
   + 3 m[17,1,56] + 3 m[17,1,57] - 3 m[17,1,58] - 3 m[17,1,59]
   - 500 c[17,14,0.0] >= -500
 R2495: c[17,14,-3.0] = 0
 R2496: c[17,14,-2.0] = 0
 R2497: c[17,14,-1.41504] = 0
 R2498: c[17,14,-1.0] = 0
 R2499: c[17,15,0.0] + c[17,15,-3.0] + c[17,15,-2.0] + c[17,15,-1.41504]
   + c[17,15,-1.0] = 1
 R2500: - m[17,1,60] - 500 c[17,15,0.0] >= -500
 R2501: 3 m[17,0,60] - 4 m[17,0,61] - 4 m[17,0,62] + 3 m[17,0,63]
   + 3 m[17,1,60] - 4 m[17,1,61] + 3 m[17,1,62] + 3 m[17,1,63]
   - 500 c[17,15,0.0] >= -500
 R2502: - 3 m[17,0,60] + 3 m[17,0,61] + 3 m[17,0,62] - 3 m[17,0,63]
   + 3 m[17,1,60] + 3 m[17,1,61] - 3 m[17,1,62] - 3 m[17,1,63]
   - 500 c[17,15,0.0] >= -500
 R2503: c[17,15,-3.0] = 0
 R2504: c[17,15,-2.0] = 0
 R2505: c[17,15,-1.41504] = 0
 R2506: c[17,15,-1.0] = 0
 R2507: m[0,1,0] - m[1,0,48] = 0
 R2508: m[0,1,1] - m[1,0,1] = 0
 R2509: m[0,1,2] - m[1,0,18] = 0
 R2510: m[0,1,3] - m[1,0,35] = 0
 R2511: m[0,1,4] - m[1,0,32] = 0
 R2512: m[0,1,5] - m[1,0,49] = 0
 R2513: m[0,1,6] - m[1,0,2] = 0
 R2514: m[0,1,7] - m[1,0,19] = 0
 R2515: m[0,1,8] - m[1,0,16] = 0
 R2516: m[0,1,9] - m[1,0,33] = 0
 R2517: m[0,1,10] - m[1,0,50] = 0
 R2518: m[0,1,11] - m[1,0,3] = 0
 R2519: m[0,1,12] - m[1,0,0] = 0
 R2520: m[0,1,13] - m[1,0,17] = 0
 R2521: m[0,1,14] - m[1,0,34] = 0
 R2522: m[0,1,15] - m[1,0,51] = 0
 R2523: m[0,1,16] - m[1,0,52] = 0
 R2524: m[0,1,17] - m[1,0,5] = 0
 R2525: m[0,1,18] - m[1,0,22] = 0
 R2526: m[0,1,19] - m[1,0,39] = 0
 R2527: m[0,1,20] - m[1,0,36] = 0
 R2528: m[0,1,21] - m[1,0,53] = 0
 R2529: m[0,1,22] - m[1,0,6] = 0
 R2530: m[0,1,23] - m[1,0,23] = 0
 R2531: m[0,1,24] - m[1,0,20] = 0
 R2532: m[0,1,25] - m[1,0,37] = 0
 R2533: m[0,1,26] - m[1,0,54] = 0
 R2534: m[0,1,27] - m[1,0,7] = 0
 R2535: m[0,1,28] - m[1,0,4] = 0
 R2536: m[0,1,29] - m[1,0,21] = 0
 R2537: m[0,1,30] - m[1,0,38] = 0
 R2538: m[0,1,31] - m[1,0,55] = 0
 R2539: m[0,1,32] - m[1,0,56] = 0
 R2540: m[0,1,33] - m[1,0,9] = 0
 R2541: m[0,1,34] - m[1,0,26] = 0
 R2542: m[0,1,35] - m[1,0,43] = 0
 R2543: m[0,1,36] - m[1,0,40] = 0
 R2544: m[0,1,37] - m[1,0,57] = 0
 R2545: m[0,1,38] - m[1,0,10] = 0
 R2546: m[0,1,39] - m[1,0,27] = 0
 R2547: m[0,1,40] - m[1,0,24] = 0
 R2548: m[0,1,41] - m[1,0,41] = 0
 R2549: m[0,1,42] - m[1,0,58] = 0
 R2550: m[0,1,43] - m[1,0,11] = 0
 R2551: m[0,1,44] - m[1,0,8] = 0
 R2552: m[0,1,45] - m[1,0,25] = 0
 R2553: m[0,1,46] - m[1,0,42] = 0
 R2554: m[0,1,47] - m[1,0,59] = 0
 R2555: m[0,1,48] - m[1,0,60] = 0
 R2556: m[0,1,49] - m[1,0,13] = 0
 R2557: m[0,1,50] - m[1,0,30] = 0
 R2558: m[0,1,51] - m[1,0,47] = 0
 R2559: m[0,1,52] - m[1,0,44] = 0
 R2560: m[0,1,53] - m[1,0,61] = 0
 R2561: m[0,1,54] - m[1,0,14] = 0
 R2562: m[0,1,55] - m[1,0,31] = 0
 R2563: m[0,1,56] - m[1,0,28] = 0
 R2564: m[0,1,57] - m[1,0,45] = 0
 R2565: m[0,1,58] - m[1,0,62] = 0
 R2566: m[0,1,59] - m[1,0,15] = 0
 R2567: m[0,1,60] - m[1,0,12] = 0
 R2568: m[0,1,61] - m[1,0,29] = 0
 R2569: m[0,1,62] - m[1,0,46] = 0
 R2570: m[0,1,63] - m[1,0,63] = 0
 R2571: m[1,1,0] - m[2,0,48] = 0
 R2572: m[1,1,1] - m[2,0,1] = 0
 R2573: m[1,1,2] - m[2,0,18] = 0
 R2574: m[1,1,3] - m[2,0,35] = 0
 R2575: m[1,1,4] - m[2,0,32] = 0
 R2576: m[1,1,5] - m[2,0,49] = 0
 R2577: m[1,1,6] - m[2,0,2] = 0
 R2578: m[1,1,7] - m[2,0,19] = 0
 R2579: m[1,1,8] - m[2,0,16] = 0
 R2580: m[1,1,9] - m[2,0,33] = 0
 R2581: m[1,1,10] - m[2,0,50] = 0
 R2582: m[1,1,11] - m[2,0,3] = 0
 R2583: m[1,1,12] - m[2,0,0] = 0
 R2584: m[1,1,13] - m[2,0,17] = 0
 R2585: m[1,1,14] - m[2,0,34] = 0
 R2586: m[1,1,15] - m[2,0,51] = 0
 R2587: m[1,1,16] - m[2,0,52] = 0
 R2588: m[1,1,17] - m[2,0,5] = 0
 R2589: m[1,1,18] - m[2,0,22] = 0
 R2590: m[1,1,19] - m[2,0,39] = 0
 R2591: m[1,1,20] - m[2,0,36] = 0
 R2592: m[1,1,21] - m[2,0,53] = 0
 R2593: m[1,1,22] - m[2,0,6] = 0
 R2594: m[1,1,23] - m[2,0,23] = 0
 R2595: m[1,1,24] - m[2,0,20] = 0
 R2596: m[1,1,25] - m[2,0,37] = 0
 R2597: m[1,1,26] - m[2,0,54] = 0
 R2598: m[1,1,27] - m[2,0,7] = 0
 R2599: m[1,1,28] - m[2,0,4] = 0
 R2600: m[1,1,29] - m[2,0,21] = 0
 R2601: m[1,1,30] - m[2,0,38] = 0
 R2602: m[1,1,31] - m[2,0,55] = 0
 R2603: m[1,1,32] - m[2,0,56] = 0
 R2604: m[1,1,33] - m[2,0,9] = 0
 R2605: m[1,1,34] - m[2,0,26] = 0
 R2606: m[1,1,35] - m[2,0,43] = 0
 R2607: m[1,1,36] - m[2,0,40] = 0
 R2608: m[1,1,37] - m[2,0,57] = 0
 R2609: m[1,1,38] - m[2,0,10] = 0
 R2610: m[1,1,39] - m[2,0,27] = 0
 R2611: m[1,1,40] - m[2,0,24] = 0
 R2612: m[1,1,41] - m[2,0,41] = 0
 R2613: m[1,1,42] - m[2,0,58] = 0
 R2614: m[1,1,43] - m[2,0,11] = 0
 R2615: m[1,1,44] - m[2,0,8] = 0
 R2616: m[1,1,45] - m[2,0,25] = 0
 R2617: m[1,1,46] - m[2,0,42] = 0
 R2618: m[1,1,47] - m[2,0,59] = 0
 R2619: m[1,1,48] - m[2,0,60] = 0
 R2620: m[1,1,49] - m[2,0,13] = 0
 R2621: m[1,1,50] - m[2,0,30] = 0
 R2622: m[1,1,51] - m[2,0,47] = 0
 R2623: m[1,1,52] - m[2,0,44] = 0
 R2624: m[1,1,53] - m[2,0,61] = 0
 R2625: m[1,1,54] - m[2,0,14] = 0
 R2626: m[1,1,55] - m[2,0,31] = 0
 R2627: m[1,1,56] - m[2,0,28] = 0
 R2628: m[1,1,57] - m[2,0,45] = 0
 R2629: m[1,1,58] - m[2,0,62] = 0
 R2630: m[1,1,59] - m[2,0,15] = 0
 R2631: m[1,1,60] - m[2,0,12] = 0
 R2632: m[1,1,61] - m[2,0,29] = 0
 R2633: m[1,1,62] - m[2,0,46] = 0
 R2634: m[1,1,63] - m[2,0,63] = 0
 R2635: m[2,1,0] - m[3,0,48] = 0
 R2636: m[2,1,1] - m[3,0,1] = 0
 R2637: m[2,1,2] - m[3,0,18] = 0
 R2638: m[2,1,3] - m[3,0,35] = 0
 R2639: m[2,1,4] - m[3,0,32] = 0
 R2640: m[2,1,5] - m[3,0,49] = 0
 R2641: m[2,1,6] - m[3,0,2] = 0
 R2642: m[2,1,7] - m[3,0,19] = 0
 R2643: m[2,1,8] - m[3,0,16] = 0
 R2644: m[2,1,9] - m[3,0,33] = 0
 R2645: m[2,1,10] - m[3,0,50] = 0
 R2646: m[2,1,11] - m[3,0,3] = 0
 R2647: m[2,1,12] - m[3,0,0] = 0
 R2648: m[2,1,13] - m[3,0,17] = 0
 R2649: m[2,1,14] - m[3,0,34] = 0
 R2650: m[2,1,15] - m[3,0,51] = 0
 R2651: m[2,1,16] - m[3,0,52] = 0
 R2652: m[2,1,17] - m[3,0,5] = 0
 R2653: m[2,1,18] - m[3,0,22] = 0
 R2654: m[2,1,19] - m[3,0,39] = 0
 R2655: m[2,1,20] - m[3,0,36] = 0
 R2656: m[2,1,21] - m[3,0,53] = 0
 R2657: m[2,1,22] - m[3,0,6] = 0
 R2658: m[2,1,23] - m[3,0,23] = 0
 R2659: m[2,1,24] - m[3,0,20] = 0
 R2660: m[2,1,25] - m[3,0,37] = 0
 R2661: m[2,1,26] - m[3,0,54] = 0
 R2662: m[2,1,27] - m[3,0,7] = 0
 R2663: m[2,1,28] - m[3,0,4] = 0
 R2664: m[2,1,29] - m[3,0,21] = 0
 R2665: m[2,1,30] - m[3,0,38] = 0
 R2666: m[2,1,31] - m[3,0,55] = 0
 R2667: m[2,1,32] - m[3,0,56] = 0
 R2668: m[2,1,33] - m[3,0,9] = 0
 R2669: m[2,1,34] - m[3,0,26] = 0
 R2670: m[2,1,35] - m[3,0,43] = 0
 R2671: m[2,1,36] - m[3,0,40] = 0
 R2672: m[2,1,37] - m[3,0,57] = 0
 R2673: m[2,1,38] - m[3,0,10] = 0
 R2674: m[2,1,39] - m[3,0,27] = 0
 R2675: m[2,1,40] - m[3,0,24] = 0
 R2676: m[2,1,41] - m[3,0,41] = 0
 R2677: m[2,1,42] - m[3,0,58] = 0
 R2678: m[2,1,43] - m[3,0,11] = 0
 R2679: m[2,1,44] - m[3,0,8] = 0
 R2680: m[2,1,45] - m[3,0,25] = 0
 R2681: m[2,1,46] - m[3,0,42] = 0
 R2682: m[2,1,47] - m[3,0,59] = 0
 R2683: m[2,1,48] - m[3,0,60] = 0
 R2684: m[2,1,49] - m[3,0,13] = 0
 R2685: m[2,1,50] - m[3,0,30] = 0
 R2686: m[2,1,51] - m[3,0,47] = 0
 R2687: m[2,1,52] - m[3,0,44] = 0
 R2688: m[2,1,53] - m[3,0,61] = 0
 R2689: m[2,1,54] - m[3,0,14] = 0
 R2690: m[2,1,55] - m[3,0,31] = 0
 R2691: m[2,1,56] - m[3,0,28] = 0
 R2692: m[2,1,57] - m[3,0,45] = 0
 R2693: m[2,1,58] - m[3,0,62] = 0
 R2694: m[2,1,59] - m[3,0,15] = 0
 R2695: m[2,1,60] - m[3,0,12] = 0
 R2696: m[2,1,61] - m[3,0,29] = 0
 R2697: m[2,1,62] - m[3,0,46] = 0
 R2698: m[2,1,63] - m[3,0,63] = 0
 R2699: m[3,1,0] - m[4,0,48] = 0
 R2700: m[3,1,1] - m[4,0,1] = 0
 R2701: m[3,1,2] - m[4,0,18] = 0
 R2702: m[3,1,3] - m[4,0,35] = 0
 R2703: m[3,1,4] - m[4,0,32] = 0
 R2704: m[3,1,5] - m[4,0,49] = 0
 R2705: m[3,1,6] - m[4,0,2] = 0
 R2706: m[3,1,7] - m[4,0,19] = 0
 R2707: m[3,1,8] - m[4,0,16] = 0
 R2708: m[3,1,9] - m[4,0,33] = 0
 R2709: m[3,1,10] - m[4,0,50] = 0
 R2710: m[3,1,11] - m[4,0,3] = 0
 R2711: m[3,1,12] - m[4,0,0] = 0
 R2712: m[3,1,13] - m[4,0,17] = 0
 R2713: m[3,1,14] - m[4,0,34] = 0
 R2714: m[3,1,15] - m[4,0,51] = 0
 R2715: m[3,1,16] - m[4,0,52] = 0
 R2716: m[3,1,17] - m[4,0,5] = 0
 R2717: m[3,1,18] - m[4,0,22] = 0
 R2718: m[3,1,19] - m[4,0,39] = 0
 R2719: m[3,1,20] - m[4,0,36] = 0
 R2720: m[3,1,21] - m[4,0,53] = 0
 R2721: m[3,1,22] - m[4,0,6] = 0
 R2722: m[3,1,23] - m[4,0,23] = 0
 R2723: m[3,1,24] - m[4,0,20] = 0
 R2724: m[3,1,25] - m[4,0,37] = 0
 R2725: m[3,1,26] - m[4,0,54] = 0
 R2726: m[3,1,27] - m[4,0,7] = 0
 R2727: m[3,1,28] - m[4,0,4] = 0
 R2728: m[3,1,29] - m[4,0,21] = 0
 R2729: m[3,1,30] - m[4,0,38] = 0
 R2730: m[3,1,31] - m[4,0,55] = 0
 R2731: m[3,1,32] - m[4,0,56] = 0
 R2732: m[3,1,33] - m[4,0,9] = 0
 R2733: m[3,1,34] - m[4,0,26] = 0
 R2734: m[3,1,35] - m[4,0,43] = 0
 R2735: m[3,1,36] - m[4,0,40] = 0
 R2736: m[3,1,37] - m[4,0,57] = 0
 R2737: m[3,1,38] - m[4,0,10] = 0
 R2738: m[3,1,39] - m[4,0,27] = 0
 R2739: m[3,1,40] - m[4,0,24] = 0
 R2740: m[3,1,41] - m[4,0,41] = 0
 R2741: m[3,1,42] - m[4,0,58] = 0
 R2742: m[3,1,43] - m[4,0,11] = 0
 R2743: m[3,1,44] - m[4,0,8] = 0
 R2744: m[3,1,45] - m[4,0,25] = 0
 R2745: m[3,1,46] - m[4,0,42] = 0
 R2746: m[3,1,47] - m[4,0,59] = 0
 R2747: m[3,1,48] - m[4,0,60] = 0
 R2748: m[3,1,49] - m[4,0,13] = 0
 R2749: m[3,1,50] - m[4,0,30] = 0
 R2750: m[3,1,51] - m[4,0,47] = 0
 R2751: m[3,1,52] - m[4,0,44] = 0
 R2752: m[3,1,53] - m[4,0,61] = 0
 R2753: m[3,1,54] - m[4,0,14] = 0
 R2754: m[3,1,55] - m[4,0,31] = 0
 R2755: m[3,1,56] - m[4,0,28] = 0
 R2756: m[3,1,57] - m[4,0,45] = 0
 R2757: m[3,1,58] - m[4,0,62] = 0
 R2758: m[3,1,59] - m[4,0,15] = 0
 R2759: m[3,1,60] - m[4,0,12] = 0
 R2760: m[3,1,61] - m[4,0,29] = 0
 R2761: m[3,1,62] - m[4,0,46] = 0
 R2762: m[3,1,63] - m[4,0,63] = 0
 R2763: m[4,1,0] - m[5,0,48] = 0
 R2764: m[4,1,1] - m[5,0,1] = 0
 R2765: m[4,1,2] - m[5,0,18] = 0
 R2766: m[4,1,3] - m[5,0,35] = 0
 R2767: m[4,1,4] - m[5,0,32] = 0
 R2768: m[4,1,5] - m[5,0,49] = 0
 R2769: m[4,1,6] - m[5,0,2] = 0
 R2770: m[4,1,7] - m[5,0,19] = 0
 R2771: m[4,1,8] - m[5,0,16] = 0
 R2772: m[4,1,9] - m[5,0,33] = 0
 R2773: m[4,1,10] - m[5,0,50] = 0
 R2774: m[4,1,11] - m[5,0,3] = 0
 R2775: m[4,1,12] - m[5,0,0] = 0
 R2776: m[4,1,13] - m[5,0,17] = 0
 R2777: m[4,1,14] - m[5,0,34] = 0
 R2778: m[4,1,15] - m[5,0,51] = 0
 R2779: m[4,1,16] - m[5,0,52] = 0
 R2780: m[4,1,17] - m[5,0,5] = 0
 R2781: m[4,1,18] - m[5,0,22] = 0
 R2782: m[4,1,19] - m[5,0,39] = 0
 R2783: m[4,1,20] - m[5,0,36] = 0
 R2784: m[4,1,21] - m[5,0,53] = 0
 R2785: m[4,1,22] - m[5,0,6] = 0
 R2786: m[4,1,23] - m[5,0,23] = 0
 R2787: m[4,1,24] - m[5,0,20] = 0
 R2788: m[4,1,25] - m[5,0,37] = 0
 R2789: m[4,1,26] - m[5,0,54] = 0
 R2790: m[4,1,27] - m[5,0,7] = 0
 R2791: m[4,1,28] - m[5,0,4] = 0
 R2792: m[4,1,29] - m[5,0,21] = 0
 R2793: m[4,1,30] - m[5,0,38] = 0
 R2794: m[4,1,31] - m[5,0,55] = 0
 R2795: m[4,1,32] - m[5,0,56] = 0
 R2796: m[4,1,33] - m[5,0,9] = 0
 R2797: m[4,1,34] - m[5,0,26] = 0
 R2798: m[4,1,35] - m[5,0,43] = 0
 R2799: m[4,1,36] - m[5,0,40] = 0
 R2800: m[4,1,37] - m[5,0,57] = 0
 R2801: m[4,1,38] - m[5,0,10] = 0
 R2802: m[4,1,39] - m[5,0,27] = 0
 R2803: m[4,1,40] - m[5,0,24] = 0
 R2804: m[4,1,41] - m[5,0,41] = 0
 R2805: m[4,1,42] - m[5,0,58] = 0
 R2806: m[4,1,43] - m[5,0,11] = 0
 R2807: m[4,1,44] - m[5,0,8] = 0
 R2808: m[4,1,45] - m[5,0,25] = 0
 R2809: m[4,1,46] - m[5,0,42] = 0
 R2810: m[4,1,47] - m[5,0,59] = 0
 R2811: m[4,1,48] - m[5,0,60] = 0
 R2812: m[4,1,49] - m[5,0,13] = 0
 R2813: m[4,1,50] - m[5,0,30] = 0
 R2814: m[4,1,51] - m[5,0,47] = 0
 R2815: m[4,1,52] - m[5,0,44] = 0
 R2816: m[4,1,53] - m[5,0,61] = 0
 R2817: m[4,1,54] - m[5,0,14] = 0
 R2818: m[4,1,55] - m[5,0,31] = 0
 R2819: m[4,1,56] - m[5,0,28] = 0
 R2820: m[4,1,57] - m[5,0,45] = 0
 R2821: m[4,1,58] - m[5,0,62] = 0
 R2822: m[4,1,59] - m[5,0,15] = 0
 R2823: m[4,1,60] - m[5,0,12] = 0
 R2824: m[4,1,61] - m[5,0,29] = 0
 R2825: m[4,1,62] - m[5,0,46] = 0
 R2826: m[4,1,63] - m[5,0,63] = 0
 R2827: m[5,1,0] - m[6,0,48] = 0
 R2828: m[5,1,1] - m[6,0,1] = 0
 R2829: m[5,1,2] - m[6,0,18] = 0
 R2830: m[5,1,3] - m[6,0,35] = 0
 R2831: m[5,1,4] - m[6,0,32] = 0
 R2832: m[5,1,5] - m[6,0,49] = 0
 R2833: m[5,1,6] - m[6,0,2] = 0
 R2834: m[5,1,7] - m[6,0,19] = 0
 R2835: m[5,1,8] - m[6,0,16] = 0
 R2836: m[5,1,9] - m[6,0,33] = 0
 R2837: m[5,1,10] - m[6,0,50] = 0
 R2838: m[5,1,11] - m[6,0,3] = 0
 R2839: m[5,1,12] - m[6,0,0] = 0
 R2840: m[5,1,13] - m[6,0,17] = 0
 R2841: m[5,1,14] - m[6,0,34] = 0
 R2842: m[5,1,15] - m[6,0,51] = 0
 R2843: m[5,1,16] - m[6,0,52] = 0
 R2844: m[5,1,17] - m[6,0,5] = 0
 R2845: m[5,1,18] - m[6,0,22] = 0
 R2846: m[5,1,19] - m[6,0,39] = 0
 R2847: m[5,1,20] - m[6,0,36] = 0
 R2848: m[5,1,21] - m[6,0,53] = 0
 R2849: m[5,1,22] - m[6,0,6] = 0
 R2850: m[5,1,23] - m[6,0,23] = 0
 R2851: m[5,1,24] - m[6,0,20] = 0
 R2852: m[5,1,25] - m[6,0,37] = 0
 R2853: m[5,1,26] - m[6,0,54] = 0
 R2854: m[5,1,27] - m[6,0,7] = 0
 R2855: m[5,1,28] - m[6,0,4] = 0
 R2856: m[5,1,29] - m[6,0,21] = 0
 R2857: m[5,1,30] - m[6,0,38] = 0
 R2858: m[5,1,31] - m[6,0,55] = 0
 R2859: m[5,1,32] - m[6,0,56] = 0
 R2860: m[5,1,33] - m[6,0,9] = 0
 R2861: m[5,1,34] - m[6,0,26] = 0
 R2862: m[5,1,35] - m[6,0,43] = 0
 R2863: m[5,1,36] - m[6,0,40] = 0
 R2864: m[5,1,37] - m[6,0,57] = 0
 R2865: m[5,1,38] - m[6,0,10] = 0
 R2866: m[5,1,39] - m[6,0,27] = 0
 R2867: m[5,1,40] - m[6,0,24] = 0
 R2868: m[5,1,41] - m[6,0,41] = 0
 R2869: m[5,1,42] - m[6,0,58] = 0
 R2870: m[5,1,43] - m[6,0,11] = 0
 R2871: m[5,1,44] - m[6,0,8] = 0
 R2872: m[5,1,45] - m[6,0,25] = 0
 R2873: m[5,1,46] - m[6,0,42] = 0
 R2874: m[5,1,47] - m[6,0,59] = 0
 R2875: m[5,1,48] - m[6,0,60] = 0
 R2876: m[5,1,49] - m[6,0,13] = 0
 R2877: m[5,1,50] - m[6,0,30] = 0
 R2878: m[5,1,51] - m[6,0,47] = 0
 R2879: m[5,1,52] - m[6,0,44] = 0
 R2880: m[5,1,53] - m[6,0,61] = 0
 R2881: m[5,1,54] - m[6,0,14] = 0
 R2882: m[5,1,55] - m[6,0,31] = 0
 R2883: m[5,1,56] - m[6,0,28] = 0
 R2884: m[5,1,57] - m[6,0,45] = 0
 R2885: m[5,1,58] - m[6,0,62] = 0
 R2886: m[5,1,59] - m[6,0,15] = 0
 R2887: m[5,1,60] - m[6,0,12] = 0
 R2888: m[5,1,61] - m[6,0,29] = 0
 R2889: m[5,1,62] - m[6,0,46] = 0
 R2890: m[5,1,63] - m[6,0,63] = 0
 R2891: m[6,1,0] - m[7,0,48] = 0
 R2892: m[6,1,1] - m[7,0,1] = 0
 R2893: m[6,1,2] - m[7,0,18] = 0
 R2894: m[6,1,3] - m[7,0,35] = 0
 R2895: m[6,1,4] - m[7,0,32] = 0
 R2896: m[6,1,5] - m[7,0,49] = 0
 R2897: m[6,1,6] - m[7,0,2] = 0
 R2898: m[6,1,7] - m[7,0,19] = 0
 R2899: m[6,1,8] - m[7,0,16] = 0
 R2900: m[6,1,9] - m[7,0,33] = 0
 R2901: m[6,1,10] - m[7,0,50] = 0
 R2902: m[6,1,11] - m[7,0,3] = 0
 R2903: m[6,1,12] - m[7,0,0] = 0
 R2904: m[6,1,13] - m[7,0,17] = 0
 R2905: m[6,1,14] - m[7,0,34] = 0
 R2906: m[6,1,15] - m[7,0,51] = 0
 R2907: m[6,1,16] - m[7,0,52] = 0
 R2908: m[6,1,17] - m[7,0,5] = 0
 R2909: m[6,1,18] - m[7,0,22] = 0
 R2910: m[6,1,19] - m[7,0,39] = 0
 R2911: m[6,1,20] - m[7,0,36] = 0
 R2912: m[6,1,21] - m[7,0,53] = 0
 R2913: m[6,1,22] - m[7,0,6] = 0
 R2914: m[6,1,23] - m[7,0,23] = 0
 R2915: m[6,1,24] - m[7,0,20] = 0
 R2916: m[6,1,25] - m[7,0,37] = 0
 R2917: m[6,1,26] - m[7,0,54] = 0
 R2918: m[6,1,27] - m[7,0,7] = 0
 R2919: m[6,1,28] - m[7,0,4] = 0
 R2920: m[6,1,29] - m[7,0,21] = 0
 R2921: m[6,1,30] - m[7,0,38] = 0
 R2922: m[6,1,31] - m[7,0,55] = 0
 R2923: m[6,1,32] - m[7,0,56] = 0
 R2924: m[6,1,33] - m[7,0,9] = 0
 R2925: m[6,1,34] - m[7,0,26] = 0
 R2926: m[6,1,35] - m[7,0,43] = 0
 R2927: m[6,1,36] - m[7,0,40] = 0
 R2928: m[6,1,37] - m[7,0,57] = 0
 R2929: m[6,1,38] - m[7,0,10] = 0
 R2930: m[6,1,39] - m[7,0,27] = 0
 R2931: m[6,1,40] - m[7,0,24] = 0
 R2932: m[6,1,41] - m[7,0,41] = 0
 R2933: m[6,1,42] - m[7,0,58] = 0
 R2934: m[6,1,43] - m[7,0,11] = 0
 R2935: m[6,1,44] - m[7,0,8] = 0
 R2936: m[6,1,45] - m[7,0,25] = 0
 R2937: m[6,1,46] - m[7,0,42] = 0
 R2938: m[6,1,47] - m[7,0,59] = 0
 R2939: m[6,1,48] - m[7,0,60] = 0
 R2940: m[6,1,49] - m[7,0,13] = 0
 R2941: m[6,1,50] - m[7,0,30] = 0
 R2942: m[6,1,51] - m[7,0,47] = 0
 R2943: m[6,1,52] - m[7,0,44] = 0
 R2944: m[6,1,53] - m[7,0,61] = 0
 R2945: m[6,1,54] - m[7,0,14] = 0
 R2946: m[6,1,55] - m[7,0,31] = 0
 R2947: m[6,1,56] - m[7,0,28] = 0
 R2948: m[6,1,57] - m[7,0,45] = 0
 R2949: m[6,1,58] - m[7,0,62] = 0
 R2950: m[6,1,59] - m[7,0,15] = 0
 R2951: m[6,1,60] - m[7,0,12] = 0
 R2952: m[6,1,61] - m[7,0,29] = 0
 R2953: m[6,1,62] - m[7,0,46] = 0
 R2954: m[6,1,63] - m[7,0,63] = 0
 R2955: m[7,1,0] - m[8,0,48] = 0
 R2956: m[7,1,1] - m[8,0,1] = 0
 R2957: m[7,1,2] - m[8,0,18] = 0
 R2958: m[7,1,3] - m[8,0,35] = 0
 R2959: m[7,1,4] - m[8,0,32] = 0
 R2960: m[7,1,5] - m[8,0,49] = 0
 R2961: m[7,1,6] - m[8,0,2] = 0
 R2962: m[7,1,7] - m[8,0,19] = 0
 R2963: m[7,1,8] - m[8,0,16] = 0
 R2964: m[7,1,9] - m[8,0,33] = 0
 R2965: m[7,1,10] - m[8,0,50] = 0
 R2966: m[7,1,11] - m[8,0,3] = 0
 R2967: m[7,1,12] - m[8,0,0] = 0
 R2968: m[7,1,13] - m[8,0,17] = 0
 R2969: m[7,1,14] - m[8,0,34] = 0
 R2970: m[7,1,15] - m[8,0,51] = 0
 R2971: m[7,1,16] - m[8,0,52] = 0
 R2972: m[7,1,17] - m[8,0,5] = 0
 R2973: m[7,1,18] - m[8,0,22] = 0
 R2974: m[7,1,19] - m[8,0,39] = 0
 R2975: m[7,1,20] - m[8,0,36] = 0
 R2976: m[7,1,21] - m[8,0,53] = 0
 R2977: m[7,1,22] - m[8,0,6] = 0
 R2978: m[7,1,23] - m[8,0,23] = 0
 R2979: m[7,1,24] - m[8,0,20] = 0
 R2980: m[7,1,25] - m[8,0,37] = 0
 R2981: m[7,1,26] - m[8,0,54] = 0
 R2982: m[7,1,27] - m[8,0,7] = 0
 R2983: m[7,1,28] - m[8,0,4] = 0
 R2984: m[7,1,29] - m[8,0,21] = 0
 R2985: m[7,1,30] - m[8,0,38] = 0
 R2986: m[7,1,31] - m[8,0,55] = 0
 R2987: m[7,1,32] - m[8,0,56] = 0
 R2988: m[7,1,33] - m[8,0,9] = 0
 R2989: m[7,1,34] - m[8,0,26] = 0
 R2990: m[7,1,35] - m[8,0,43] = 0
 R2991: m[7,1,36] - m[8,0,40] = 0
 R2992: m[7,1,37] - m[8,0,57] = 0
 R2993: m[7,1,38] - m[8,0,10] = 0
 R2994: m[7,1,39] - m[8,0,27] = 0
 R2995: m[7,1,40] - m[8,0,24] = 0
 R2996: m[7,1,41] - m[8,0,41] = 0
 R2997: m[7,1,42] - m[8,0,58] = 0
 R2998: m[7,1,43] - m[8,0,11] = 0
 R2999: m[7,1,44] - m[8,0,8] = 0
 R3000: m[7,1,45] - m[8,0,25] = 0
 R3001: m[7,1,46] - m[8,0,42] = 0
 R3002: m[7,1,47] - m[8,0,59] = 0
 R3003: m[7,1,48] - m[8,0,60] = 0
 R3004: m[7,1,49] - m[8,0,13] = 0
 R3005: m[7,1,50] - m[8,0,30] = 0
 R3006: m[7,1,51] - m[8,0,47] = 0
 R3007: m[7,1,52] - m[8,0,44] = 0
 R3008: m[7,1,53] - m[8,0,61] = 0
 R3009: m[7,1,54] - m[8,0,14] = 0
 R3010: m[7,1,55] - m[8,0,31] = 0
 R3011: m[7,1,56] - m[8,0,28] = 0
 R3012: m[7,1,57] - m[8,0,45] = 0
 R3013: m[7,1,58] - m[8,0,62] = 0
 R3014: m[7,1,59] - m[8,0,15] = 0
 R3015: m[7,1,60] - m[8,0,12] = 0
 R3016: m[7,1,61] - m[8,0,29] = 0
 R3017: m[7,1,62] - m[8,0,46] = 0
 R3018: m[7,1,63] - m[8,0,63] = 0
 R3019: m[8,1,0] - m[9,0,48] = 0
 R3020: m[8,1,1] - m[9,0,1] = 0
 R3021: m[8,1,2] - m[9,0,18] = 0
 R3022: m[8,1,3] - m[9,0,35] = 0
 R3023: m[8,1,4] - m[9,0,32] = 0
 R3024: m[8,1,5] - m[9,0,49] = 0
 R3025: m[8,1,6] - m[9,0,2] = 0
 R3026: m[8,1,7] - m[9,0,19] = 0
 R3027: m[8,1,8] - m[9,0,16] = 0
 R3028: m[8,1,9] - m[9,0,33] = 0
 R3029: m[8,1,10] - m[9,0,50] = 0
 R3030: m[8,1,11] - m[9,0,3] = 0
 R3031: m[8,1,12] - m[9,0,0] = 0
 R3032: m[8,1,13] - m[9,0,17] = 0
 R3033: m[8,1,14] - m[9,0,34] = 0
 R3034: m[8,1,15] - m[9,0,51] = 0
 R3035: m[8,1,16] - m[9,0,52] = 0
 R3036: m[8,1,17] - m[9,0,5] = 0
 R3037: m[8,1,18] - m[9,0,22] = 0
 R3038: m[8,1,19] - m[9,0,39] = 0
 R3039: m[8,1,20] - m[9,0,36] = 0
 R3040: m[8,1,21] - m[9,0,53] = 0
 R3041: m[8,1,22] - m[9,0,6] = 0
 R3042: m[8,1,23] - m[9,0,23] = 0
 R3043: m[8,1,24] - m[9,0,20] = 0
 R3044: m[8,1,25] - m[9,0,37] = 0
 R3045: m[8,1,26] - m[9,0,54] = 0
 R3046: m[8,1,27] - m[9,0,7] = 0
 R3047: m[8,1,28] - m[9,0,4] = 0
 R3048: m[8,1,29] - m[9,0,21] = 0
 R3049: m[8,1,30] - m[9,0,38] = 0
 R3050: m[8,1,31] - m[9,0,55] = 0
 R3051: m[8,1,32] - m[9,0,56] = 0
 R3052: m[8,1,33] - m[9,0,9] = 0
 R3053: m[8,1,34] - m[9,0,26] = 0
 R3054: m[8,1,35] - m[9,0,43] = 0
 R3055: m[8,1,36] - m[9,0,40] = 0
 R3056: m[8,1,37] - m[9,0,57] = 0
 R3057: m[8,1,38] - m[9,0,10] = 0
 R3058: m[8,1,39] - m[9,0,27] = 0
 R3059: m[8,1,40] - m[9,0,24] = 0
 R3060: m[8,1,41] - m[9,0,41] = 0
 R3061: m[8,1,42] - m[9,0,58] = 0
 R3062: m[8,1,43] - m[9,0,11] = 0
 R3063: m[8,1,44] - m[9,0,8] = 0
 R3064: m[8,1,45] - m[9,0,25] = 0
 R3065: m[8,1,46] - m[9,0,42] = 0
 R3066: m[8,1,47] - m[9,0,59] = 0
 R3067: m[8,1,48] - m[9,0,60] = 0
 R3068: m[8,1,49] - m[9,0,13] = 0
 R3069: m[8,1,50] - m[9,0,30] = 0
 R3070: m[8,1,51] - m[9,0,47] = 0
 R3071: m[8,1,52] - m[9,0,44] = 0
 R3072: m[8,1,53] - m[9,0,61] = 0
 R3073: m[8,1,54] - m[9,0,14] = 0
 R3074: m[8,1,55] - m[9,0,31] = 0
 R3075: m[8,1,56] - m[9,0,28] = 0
 R3076: m[8,1,57] - m[9,0,45] = 0
 R3077: m[8,1,58] - m[9,0,62] = 0
 R3078: m[8,1,59] - m[9,0,15] = 0
 R3079: m[8,1,60] - m[9,0,12] = 0
 R3080: m[8,1,61] - m[9,0,29] = 0
 R3081: m[8,1,62] - m[9,0,46] = 0
 R3082: m[8,1,63] - m[9,0,63] = 0
 R3083: m[9,1,0] - m[10,0,48] = 0
 R3084: m[9,1,1] - m[10,0,1] = 0
 R3085: m[9,1,2] - m[10,0,18] = 0
 R3086: m[9,1,3] - m[10,0,35] = 0
 R3087: m[9,1,4] - m[10,0,32] = 0
 R3088: m[9,1,5] - m[10,0,49] = 0
 R3089: m[9,1,6] - m[10,0,2] = 0
 R3090: m[9,1,7] - m[10,0,19] = 0
 R3091: m[9,1,8] - m[10,0,16] = 0
 R3092: m[9,1,9] - m[10,0,33] = 0
 R3093: m[9,1,10] - m[10,0,50] = 0
 R3094: m[9,1,11] - m[10,0,3] = 0
 R3095: m[9,1,12] - m[10,0,0] = 0
 R3096: m[9,1,13] - m[10,0,17] = 0
 R3097: m[9,1,14] - m[10,0,34] = 0
 R3098: m[9,1,15] - m[10,0,51] = 0
 R3099: m[9,1,16] - m[10,0,52] = 0
 R3100: m[9,1,17] - m[10,0,5] = 0
 R3101: m[9,1,18] - m[10,0,22] = 0
 R3102: m[9,1,19] - m[10,0,39] = 0
 R3103: m[9,1,20] - m[10,0,36] = 0
 R3104: m[9,1,21] - m[10,0,53] = 0
 R3105: m[9,1,22] - m[10,0,6] = 0
 R3106: m[9,1,23] - m[10,0,23] = 0
 R3107: m[9,1,24] - m[10,0,20] = 0
 R3108: m[9,1,25] - m[10,0,37] = 0
 R3109: m[9,1,26] - m[10,0,54] = 0
 R3110: m[9,1,27] - m[10,0,7] = 0
 R3111: m[9,1,28] - m[10,0,4] = 0
 R3112: m[9,1,29] - m[10,0,21] = 0
 R3113: m[9,1,30] - m[10,0,38] = 0
 R3114: m[9,1,31] - m[10,0,55] = 0
 R3115: m[9,1,32] - m[10,0,56] = 0
 R3116: m[9,1,33] - m[10,0,9] = 0
 R3117: m[9,1,34] - m[10,0,26] = 0
 R3118: m[9,1,35] - m[10,0,43] = 0
 R3119: m[9,1,36] - m[10,0,40] = 0
 R3120: m[9,1,37] - m[10,0,57] = 0
 R3121: m[9,1,38] - m[10,0,10] = 0
 R3122: m[9,1,39] - m[10,0,27] = 0
 R3123: m[9,1,40] - m[10,0,24] = 0
 R3124: m[9,1,41] - m[10,0,41] = 0
 R3125: m[9,1,42] - m[10,0,58] = 0
 R3126: m[9,1,43] - m[10,0,11] = 0
 R3127: m[9,1,44] - m[10,0,8] = 0
 R3128: m[9,1,45] - m[10,0,25] = 0
 R3129: m[9,1,46] - m[10,0,42] = 0
 R3130: m[9,1,47] - m[10,0,59] = 0
 R3131: m[9,1,48] - m[10,0,60] = 0
 R3132: m[9,1,49] - m[10,0,13] = 0
 R3133: m[9,1,50] - m[10,0,30] = 0
 R3134: m[9,1,51] - m[10,0,47] = 0
 R3135: m[9,1,52] - m[10,0,44] = 0
 R3136: m[9,1,53] - m[10,0,61] = 0
 R3137: m[9,1,54] - m[10,0,14] = 0
 R3138: m[9,1,55] - m[10,0,31] = 0
 R3139: m[9,1,56] - m[10,0,28] = 0
 R3140: m[9,1,57] - m[10,0,45] = 0
 R3141: m[9,1,58] - m[10,0,62] = 0
 R3142: m[9,1,59] - m[10,0,15] = 0
 R3143: m[9,1,60] - m[10,0,12] = 0
 R3144: m[9,1,61] - m[10,0,29] = 0
 R3145: m[9,1,62] - m[10,0,46] = 0
 R3146: m[9,1,63] - m[10,0,63] = 0
 R3147: m[10,1,0] - m[11,0,48] = 0
 R3148: m[10,1,1] - m[11,0,1] = 0
 R3149: m[10,1,2] - m[11,0,18] = 0
 R3150: m[10,1,3] - m[11,0,35] = 0
 R3151: m[10,1,4] - m[11,0,32] = 0
 R3152: m[10,1,5] - m[11,0,49] = 0
 R3153: m[10,1,6] - m[11,0,2] = 0
 R3154: m[10,1,7] - m[11,0,19] = 0
 R3155: m[10,1,8] - m[11,0,16] = 0
 R3156: m[10,1,9] - m[11,0,33] = 0
 R3157: m[10,1,10] - m[11,0,50] = 0
 R3158: m[10,1,11] - m[11,0,3] = 0
 R3159: m[10,1,12] - m[11,0,0] = 0
 R3160: m[10,1,13] - m[11,0,17] = 0
 R3161: m[10,1,14] - m[11,0,34] = 0
 R3162: m[10,1,15] - m[11,0,51] = 0
 R3163: m[10,1,16] - m[11,0,52] = 0
 R3164: m[10,1,17] - m[11,0,5] = 0
 R3165: m[10,1,18] - m[11,0,22] = 0
 R3166: m[10,1,19] - m[11,0,39] = 0
 R3167: m[10,1,20] - m[11,0,36] = 0
 R3168: m[10,1,21] - m[11,0,53] = 0
 R3169: m[10,1,22] - m[11,0,6] = 0
 R3170: m[10,1,23] - m[11,0,23] = 0
 R3171: m[10,1,24] - m[11,0,20] = 0
 R3172: m[10,1,25] - m[11,0,37] = 0
 R3173: m[10,1,26] - m[11,0,54] = 0
 R3174: m[10,1,27] - m[11,0,7] = 0
 R3175: m[10,1,28] - m[11,0,4] = 0
 R3176: m[10,1,29] - m[11,0,21] = 0
 R3177: m[10,1,30] - m[11,0,38] = 0
 R3178: m[10,1,31] - m[11,0,55] = 0
 R3179: m[10,1,32] - m[11,0,56] = 0
 R3180: m[10,1,33] - m[11,0,9] = 0
 R3181: m[10,1,34] - m[11,0,26] = 0
 R3182: m[10,1,35] - m[11,0,43] = 0
 R3183: m[10,1,36] - m[11,0,40] = 0
 R3184: m[10,1,37] - m[11,0,57] = 0
 R3185: m[10,1,38] - m[11,0,10] = 0
 R3186: m[10,1,39] - m[11,0,27] = 0
 R3187: m[10,1,40] - m[11,0,24] = 0
 R3188: m[10,1,41] - m[11,0,41] = 0
 R3189: m[10,1,42] - m[11,0,58] = 0
 R3190: m[10,1,43] - m[11,0,11] = 0
 R3191: m[10,1,44] - m[11,0,8] = 0
 R3192: m[10,1,45] - m[11,0,25] = 0
 R3193: m[10,1,46] - m[11,0,42] = 0
 R3194: m[10,1,47] - m[11,0,59] = 0
 R3195: m[10,1,48] - m[11,0,60] = 0
 R3196: m[10,1,49] - m[11,0,13] = 0
 R3197: m[10,1,50] - m[11,0,30] = 0
 R3198: m[10,1,51] - m[11,0,47] = 0
 R3199: m[10,1,52] - m[11,0,44] = 0
 R3200: m[10,1,53] - m[11,0,61] = 0
 R3201: m[10,1,54] - m[11,0,14] = 0
 R3202: m[10,1,55] - m[11,0,31] = 0
 R3203: m[10,1,56] - m[11,0,28] = 0
 R3204: m[10,1,57] - m[11,0,45] = 0
 R3205: m[10,1,58] - m[11,0,62] = 0
 R3206: m[10,1,59] - m[11,0,15] = 0
 R3207: m[10,1,60] - m[11,0,12] = 0
 R3208: m[10,1,61] - m[11,0,29] = 0
 R3209: m[10,1,62] - m[11,0,46] = 0
 R3210: m[10,1,63] - m[11,0,63] = 0
 R3211: m[11,1,0] - m[12,0,48] = 0
 R3212: m[11,1,1] - m[12,0,1] = 0
 R3213: m[11,1,2] - m[12,0,18] = 0
 R3214: m[11,1,3] - m[12,0,35] = 0
 R3215: m[11,1,4] - m[12,0,32] = 0
 R3216: m[11,1,5] - m[12,0,49] = 0
 R3217: m[11,1,6] - m[12,0,2] = 0
 R3218: m[11,1,7] - m[12,0,19] = 0
 R3219: m[11,1,8] - m[12,0,16] = 0
 R3220: m[11,1,9] - m[12,0,33] = 0
 R3221: m[11,1,10] - m[12,0,50] = 0
 R3222: m[11,1,11] - m[12,0,3] = 0
 R3223: m[11,1,12] - m[12,0,0] = 0
 R3224: m[11,1,13] - m[12,0,17] = 0
 R3225: m[11,1,14] - m[12,0,34] = 0
 R3226: m[11,1,15] - m[12,0,51] = 0
 R3227: m[11,1,16] - m[12,0,52] = 0
 R3228: m[11,1,17] - m[12,0,5] = 0
 R3229: m[11,1,18] - m[12,0,22] = 0
 R3230: m[11,1,19] - m[12,0,39] = 0
 R3231: m[11,1,20] - m[12,0,36] = 0
 R3232: m[11,1,21] - m[12,0,53] = 0
 R3233: m[11,1,22] - m[12,0,6] = 0
 R3234: m[11,1,23] - m[12,0,23] = 0
 R3235: m[11,1,24] - m[12,0,20] = 0
 R3236: m[11,1,25] - m[12,0,37] = 0
 R3237: m[11,1,26] - m[12,0,54] = 0
 R3238: m[11,1,27] - m[12,0,7] = 0
 R3239: m[11,1,28] - m[12,0,4] = 0
 R3240: m[11,1,29] - m[12,0,21] = 0
 R3241: m[11,1,30] - m[12,0,38] = 0
 R3242: m[11,1,31] - m[12,0,55] = 0
 R3243: m[11,1,32] - m[12,0,56] = 0
 R3244: m[11,1,33] - m[12,0,9] = 0
 R3245: m[11,1,34] - m[12,0,26] = 0
 R3246: m[11,1,35] - m[12,0,43] = 0
 R3247: m[11,1,36] - m[12,0,40] = 0
 R3248: m[11,1,37] - m[12,0,57] = 0
 R3249: m[11,1,38] - m[12,0,10] = 0
 R3250: m[11,1,39] - m[12,0,27] = 0
 R3251: m[11,1,40] - m[12,0,24] = 0
 R3252: m[11,1,41] - m[12,0,41] = 0
 R3253: m[11,1,42] - m[12,0,58] = 0
 R3254: m[11,1,43] - m[12,0,11] = 0
 R3255: m[11,1,44] - m[12,0,8] = 0
 R3256: m[11,1,45] - m[12,0,25] = 0
 R3257: m[11,1,46] - m[12,0,42] = 0
 R3258: m[11,1,47] - m[12,0,59] = 0
 R3259: m[11,1,48] - m[12,0,60] = 0
 R3260: m[11,1,49] - m[12,0,13] = 0
 R3261: m[11,1,50] - m[12,0,30] = 0
 R3262: m[11,1,51] - m[12,0,47] = 0
 R3263: m[11,1,52] - m[12,0,44] = 0
 R3264: m[11,1,53] - m[12,0,61] = 0
 R3265: m[11,1,54] - m[12,0,14] = 0
 R3266: m[11,1,55] - m[12,0,31] = 0
 R3267: m[11,1,56] - m[12,0,28] = 0
 R3268: m[11,1,57] - m[12,0,45] = 0
 R3269: m[11,1,58] - m[12,0,62] = 0
 R3270: m[11,1,59] - m[12,0,15] = 0
 R3271: m[11,1,60] - m[12,0,12] = 0
 R3272: m[11,1,61] - m[12,0,29] = 0
 R3273: m[11,1,62] - m[12,0,46] = 0
 R3274: m[11,1,63] - m[12,0,63] = 0
 R3275: m[12,1,0] - m[13,0,48] = 0
 R3276: m[12,1,1] - m[13,0,1] = 0
 R3277: m[12,1,2] - m[13,0,18] = 0
 R3278: m[12,1,3] - m[13,0,35] = 0
 R3279: m[12,1,4] - m[13,0,32] = 0
 R3280: m[12,1,5] - m[13,0,49] = 0
 R3281: m[12,1,6] - m[13,0,2] = 0
 R3282: m[12,1,7] - m[13,0,19] = 0
 R3283: m[12,1,8] - m[13,0,16] = 0
 R3284: m[12,1,9] - m[13,0,33] = 0
 R3285: m[12,1,10] - m[13,0,50] = 0
 R3286: m[12,1,11] - m[13,0,3] = 0
 R3287: m[12,1,12] - m[13,0,0] = 0
 R3288: m[12,1,13] - m[13,0,17] = 0
 R3289: m[12,1,14] - m[13,0,34] = 0
 R3290: m[12,1,15] - m[13,0,51] = 0
 R3291: m[12,1,16] - m[13,0,52] = 0
 R3292: m[12,1,17] - m[13,0,5] = 0
 R3293: m[12,1,18] - m[13,0,22] = 0
 R3294: m[12,1,19] - m[13,0,39] = 0
 R3295: m[12,1,20] - m[13,0,36] = 0
 R3296: m[12,1,21] - m[13,0,53] = 0
 R3297: m[12,1,22] - m[13,0,6] = 0
 R3298: m[12,1,23] - m[13,0,23] = 0
 R3299: m[12,1,24] - m[13,0,20] = 0
 R3300: m[12,1,25] - m[13,0,37] = 0
 R3301: m[12,1,26] - m[13,0,54] = 0
 R3302: m[12,1,27] - m[13,0,7] = 0
 R3303: m[12,1,28] - m[13,0,4] = 0
 R3304: m[12,1,29] - m[13,0,21] = 0
 R3305: m[12,1,30] - m[13,0,38] = 0
 R3306: m[12,1,31] - m[13,0,55] = 0
 R3307: m[12,1,32] - m[13,0,56] = 0
 R3308: m[12,1,33] - m[13,0,9] = 0
 R3309: m[12,1,34] - m[13,0,26] = 0
 R3310: m[12,1,35] - m[13,0,43] = 0
 R3311: m[12,1,36] - m[13,0,40] = 0
 R3312: m[12,1,37] - m[13,0,57] = 0
 R3313: m[12,1,38] - m[13,0,10] = 0
 R3314: m[12,1,39] - m[13,0,27] = 0
 R3315: m[12,1,40] - m[13,0,24] = 0
 R3316: m[12,1,41] - m[13,0,41] = 0
 R3317: m[12,1,42] - m[13,0,58] = 0
 R3318: m[12,1,43] - m[13,0,11] = 0
 R3319: m[12,1,44] - m[13,0,8] = 0
 R3320: m[12,1,45] - m[13,0,25] = 0
 R3321: m[12,1,46] - m[13,0,42] = 0
 R3322: m[12,1,47] - m[13,0,59] = 0
 R3323: m[12,1,48] - m[13,0,60] = 0
 R3324: m[12,1,49] - m[13,0,13] = 0
 R3325: m[12,1,50] - m[13,0,30] = 0
 R3326: m[12,1,51] - m[13,0,47] = 0
 R3327: m[12,1,52] - m[13,0,44] = 0
 R3328: m[12,1,53] - m[13,0,61] = 0
 R3329: m[12,1,54] - m[13,0,14] = 0
 R3330: m[12,1,55] - m[13,0,31] = 0
 R3331: m[12,1,56] - m[13,0,28] = 0
 R3332: m[12,1,57] - m[13,0,45] = 0
 R3333: m[12,1,58] - m[13,0,62] = 0
 R3334: m[12,1,59] - m[13,0,15] = 0
 R3335: m[12,1,60] - m[13,0,12] = 0
 R3336: m[12,1,61] - m[13,0,29] = 0
 R3337: m[12,1,62] - m[13,0,46] = 0
 R3338: m[12,1,63] - m[13,0,63] = 0
 R3339: m[13,1,0] - m[14,0,48] = 0
 R3340: m[13,1,1] - m[14,0,1] = 0
 R3341: m[13,1,2] - m[14,0,18] = 0
 R3342: m[13,1,3] - m[14,0,35] = 0
 R3343: m[13,1,4] - m[14,0,32] = 0
 R3344: m[13,1,5] - m[14,0,49] = 0
 R3345: m[13,1,6] - m[14,0,2] = 0
 R3346: m[13,1,7] - m[14,0,19] = 0
 R3347: m[13,1,8] - m[14,0,16] = 0
 R3348: m[13,1,9] - m[14,0,33] = 0
 R3349: m[13,1,10] - m[14,0,50] = 0
 R3350: m[13,1,11] - m[14,0,3] = 0
 R3351: m[13,1,12] - m[14,0,0] = 0
 R3352: m[13,1,13] - m[14,0,17] = 0
 R3353: m[13,1,14] - m[14,0,34] = 0
 R3354: m[13,1,15] - m[14,0,51] = 0
 R3355: m[13,1,16] - m[14,0,52] = 0
 R3356: m[13,1,17] - m[14,0,5] = 0
 R3357: m[13,1,18] - m[14,0,22] = 0
 R3358: m[13,1,19] - m[14,0,39] = 0
 R3359: m[13,1,20] - m[14,0,36] = 0
 R3360: m[13,1,21] - m[14,0,53] = 0
 R3361: m[13,1,22] - m[14,0,6] = 0
 R3362: m[13,1,23] - m[14,0,23] = 0
 R3363: m[13,1,24] - m[14,0,20] = 0
 R3364: m[13,1,25] - m[14,0,37] = 0
 R3365: m[13,1,26] - m[14,0,54] = 0
 R3366: m[13,1,27] - m[14,0,7] = 0
 R3367: m[13,1,28] - m[14,0,4] = 0
 R3368: m[13,1,29] - m[14,0,21] = 0
 R3369: m[13,1,30] - m[14,0,38] = 0
 R3370: m[13,1,31] - m[14,0,55] = 0
 R3371: m[13,1,32] - m[14,0,56] = 0
 R3372: m[13,1,33] - m[14,0,9] = 0
 R3373: m[13,1,34] - m[14,0,26] = 0
 R3374: m[13,1,35] - m[14,0,43] = 0
 R3375: m[13,1,36] - m[14,0,40] = 0
 R3376: m[13,1,37] - m[14,0,57] = 0
 R3377: m[13,1,38] - m[14,0,10] = 0
 R3378: m[13,1,39] - m[14,0,27] = 0
 R3379: m[13,1,40] - m[14,0,24] = 0
 R3380: m[13,1,41] - m[14,0,41] = 0
 R3381: m[13,1,42] - m[14,0,58] = 0
 R3382: m[13,1,43] - m[14,0,11] = 0
 R3383: m[13,1,44] - m[14,0,8] = 0
 R3384: m[13,1,45] - m[14,0,25] = 0
 R3385: m[13,1,46] - m[14,0,42] = 0
 R3386: m[13,1,47] - m[14,0,59] = 0
 R3387: m[13,1,48] - m[14,0,60] = 0
 R3388: m[13,1,49] - m[14,0,13] = 0
 R3389: m[13,1,50] - m[14,0,30] = 0
 R3390: m[13,1,51] - m[14,0,47] = 0
 R3391: m[13,1,52] - m[14,0,44] = 0
 R3392: m[13,1,53] - m[14,0,61] = 0
 R3393: m[13,1,54] - m[14,0,14] = 0
 R3394: m[13,1,55] - m[14,0,31] = 0
 R3395: m[13,1,56] - m[14,0,28] = 0
 R3396: m[13,1,57] - m[14,0,45] = 0
 R3397: m[13,1,58] - m[14,0,62] = 0
 R3398: m[13,1,59] - m[14,0,15] = 0
 R3399: m[13,1,60] - m[14,0,12] = 0
 R3400: m[13,1,61] - m[14,0,29] = 0
 R3401: m[13,1,62] - m[14,0,46] = 0
 R3402: m[13,1,63] - m[14,0,63] = 0
 R3403: m[14,1,0] - m[15,0,48] = 0
 R3404: m[14,1,1] - m[15,0,1] = 0
 R3405: m[14,1,2] - m[15,0,18] = 0
 R3406: m[14,1,3] - m[15,0,35] = 0
 R3407: m[14,1,4] - m[15,0,32] = 0
 R3408: m[14,1,5] - m[15,0,49] = 0
 R3409: m[14,1,6] - m[15,0,2] = 0
 R3410: m[14,1,7] - m[15,0,19] = 0
 R3411: m[14,1,8] - m[15,0,16] = 0
 R3412: m[14,1,9] - m[15,0,33] = 0
 R3413: m[14,1,10] - m[15,0,50] = 0
 R3414: m[14,1,11] - m[15,0,3] = 0
 R3415: m[14,1,12] - m[15,0,0] = 0
 R3416: m[14,1,13] - m[15,0,17] = 0
 R3417: m[14,1,14] - m[15,0,34] = 0
 R3418: m[14,1,15] - m[15,0,51] = 0
 R3419: m[14,1,16] - m[15,0,52] = 0
 R3420: m[14,1,17] - m[15,0,5] = 0
 R3421: m[14,1,18] - m[15,0,22] = 0
 R3422: m[14,1,19] - m[15,0,39] = 0
 R3423: m[14,1,20] - m[15,0,36] = 0
 R3424: m[14,1,21] - m[15,0,53] = 0
 R3425: m[14,1,22] - m[15,0,6] = 0
 R3426: m[14,1,23] - m[15,0,23] = 0
 R3427: m[14,1,24] - m[15,0,20] = 0
 R3428: m[14,1,25] - m[15,0,37] = 0
 R3429: m[14,1,26] - m[15,0,54] = 0
 R3430: m[14,1,27] - m[15,0,7] = 0
 R3431: m[14,1,28] - m[15,0,4] = 0
 R3432: m[14,1,29] - m[15,0,21] = 0
 R3433: m[14,1,30] - m[15,0,38] = 0
 R3434: m[14,1,31] - m[15,0,55] = 0
 R3435: m[14,1,32] - m[15,0,56] = 0
 R3436: m[14,1,33] - m[15,0,9] = 0
 R3437: m[14,1,34] - m[15,0,26] = 0
 R3438: m[14,1,35] - m[15,0,43] = 0
 R3439: m[14,1,36] - m[15,0,40] = 0
 R3440: m[14,1,37] - m[15,0,57] = 0
 R3441: m[14,1,38] - m[15,0,10] = 0
 R3442: m[14,1,39] - m[15,0,27] = 0
 R3443: m[14,1,40] - m[15,0,24] = 0
 R3444: m[14,1,41] - m[15,0,41] = 0
 R3445: m[14,1,42] - m[15,0,58] = 0
 R3446: m[14,1,43] - m[15,0,11] = 0
 R3447: m[14,1,44] - m[15,0,8] = 0
 R3448: m[14,1,45] - m[15,0,25] = 0
 R3449: m[14,1,46] - m[15,0,42] = 0
 R3450: m[14,1,47] - m[15,0,59] = 0
 R3451: m[14,1,48] - m[15,0,60] = 0
 R3452: m[14,1,49] - m[15,0,13] = 0
 R3453: m[14,1,50] - m[15,0,30] = 0
 R3454: m[14,1,51] - m[15,0,47] = 0
 R3455: m[14,1,52] - m[15,0,44] = 0
 R3456: m[14,1,53] - m[15,0,61] = 0
 R3457: m[14,1,54] - m[15,0,14] = 0
 R3458: m[14,1,55] - m[15,0,31] = 0
 R3459: m[14,1,56] - m[15,0,28] = 0
 R3460: m[14,1,57] - m[15,0,45] = 0
 R3461: m[14,1,58] - m[15,0,62] = 0
 R3462: m[14,1,59] - m[15,0,15] = 0
 R3463: m[14,1,60] - m[15,0,12] = 0
 R3464: m[14,1,61] - m[15,0,29] = 0
 R3465: m[14,1,62] - m[15,0,46] = 0
 R3466: m[14,1,63] - m[15,0,63] = 0
 R3467: m[15,1,0] - m[16,0,48] = 0
 R3468: m[15,1,1] - m[16,0,1] = 0
 R3469: m[15,1,2] - m[16,0,18] = 0
 R3470: m[15,1,3] - m[16,0,35] = 0
 R3471: m[15,1,4] - m[16,0,32] = 0
 R3472: m[15,1,5] - m[16,0,49] = 0
 R3473: m[15,1,6] - m[16,0,2] = 0
 R3474: m[15,1,7] - m[16,0,19] = 0
 R3475: m[15,1,8] - m[16,0,16] = 0
 R3476: m[15,1,9] - m[16,0,33] = 0
 R3477: m[15,1,10] - m[16,0,50] = 0
 R3478: m[15,1,11] - m[16,0,3] = 0
 R3479: m[15,1,12] - m[16,0,0] = 0
 R3480: m[15,1,13] - m[16,0,17] = 0
 R3481: m[15,1,14] - m[16,0,34] = 0
 R3482: m[15,1,15] - m[16,0,51] = 0
 R3483: m[15,1,16] - m[16,0,52] = 0
 R3484: m[15,1,17] - m[16,0,5] = 0
 R3485: m[15,1,18] - m[16,0,22] = 0
 R3486: m[15,1,19] - m[16,0,39] = 0
 R3487: m[15,1,20] - m[16,0,36] = 0
 R3488: m[15,1,21] - m[16,0,53] = 0
 R3489: m[15,1,22] - m[16,0,6] = 0
 R3490: m[15,1,23] - m[16,0,23] = 0
 R3491: m[15,1,24] - m[16,0,20] = 0
 R3492: m[15,1,25] - m[16,0,37] = 0
 R3493: m[15,1,26] - m[16,0,54] = 0
 R3494: m[15,1,27] - m[16,0,7] = 0
 R3495: m[15,1,28] - m[16,0,4] = 0
 R3496: m[15,1,29] - m[16,0,21] = 0
 R3497: m[15,1,30] - m[16,0,38] = 0
 R3498: m[15,1,31] - m[16,0,55] = 0
 R3499: m[15,1,32] - m[16,0,56] = 0
 R3500: m[15,1,33] - m[16,0,9] = 0
 R3501: m[15,1,34] - m[16,0,26] = 0
 R3502: m[15,1,35] - m[16,0,43] = 0
 R3503: m[15,1,36] - m[16,0,40] = 0
 R3504: m[15,1,37] - m[16,0,57] = 0
 R3505: m[15,1,38] - m[16,0,10] = 0
 R3506: m[15,1,39] - m[16,0,27] = 0
 R3507: m[15,1,40] - m[16,0,24] = 0
 R3508: m[15,1,41] - m[16,0,41] = 0
 R3509: m[15,1,42] - m[16,0,58] = 0
 R3510: m[15,1,43] - m[16,0,11] = 0
 R3511: m[15,1,44] - m[16,0,8] = 0
 R3512: m[15,1,45] - m[16,0,25] = 0
 R3513: m[15,1,46] - m[16,0,42] = 0
 R3514: m[15,1,47] - m[16,0,59] = 0
 R3515: m[15,1,48] - m[16,0,60] = 0
 R3516: m[15,1,49] - m[16,0,13] = 0
 R3517: m[15,1,50] - m[16,0,30] = 0
 R3518: m[15,1,51] - m[16,0,47] = 0
 R3519: m[15,1,52] - m[16,0,44] = 0
 R3520: m[15,1,53] - m[16,0,61] = 0
 R3521: m[15,1,54] - m[16,0,14] = 0
 R3522: m[15,1,55] - m[16,0,31] = 0
 R3523: m[15,1,56] - m[16,0,28] = 0
 R3524: m[15,1,57] - m[16,0,45] = 0
 R3525: m[15,1,58] - m[16,0,62] = 0
 R3526: m[15,1,59] - m[16,0,15] = 0
 R3527: m[15,1,60] - m[16,0,12] = 0
 R3528: m[15,1,61] - m[16,0,29] = 0
 R3529: m[15,1,62] - m[16,0,46] = 0
 R3530: m[15,1,63] - m[16,0,63] = 0
 R3531: m[16,1,0] - m[17,0,48] = 0
 R3532: m[16,1,1] - m[17,0,1] = 0
 R3533: m[16,1,2] - m[17,0,18] = 0
 R3534: m[16,1,3] - m[17,0,35] = 0
 R3535: m[16,1,4] - m[17,0,32] = 0
 R3536: m[16,1,5] - m[17,0,49] = 0
 R3537: m[16,1,6] - m[17,0,2] = 0
 R3538: m[16,1,7] - m[17,0,19] = 0
 R3539: m[16,1,8] - m[17,0,16] = 0
 R3540: m[16,1,9] - m[17,0,33] = 0
 R3541: m[16,1,10] - m[17,0,50] = 0
 R3542: m[16,1,11] - m[17,0,3] = 0
 R3543: m[16,1,12] - m[17,0,0] = 0
 R3544: m[16,1,13] - m[17,0,17] = 0
 R3545: m[16,1,14] - m[17,0,34] = 0
 R3546: m[16,1,15] - m[17,0,51] = 0
 R3547: m[16,1,16] - m[17,0,52] = 0
 R3548: m[16,1,17] - m[17,0,5] = 0
 R3549: m[16,1,18] - m[17,0,22] = 0
 R3550: m[16,1,19] - m[17,0,39] = 0
 R3551: m[16,1,20] - m[17,0,36] = 0
 R3552: m[16,1,21] - m[17,0,53] = 0
 R3553: m[16,1,22] - m[17,0,6] = 0
 R3554: m[16,1,23] - m[17,0,23] = 0
 R3555: m[16,1,24] - m[17,0,20] = 0
 R3556: m[16,1,25] - m[17,0,37] = 0
 R3557: m[16,1,26] - m[17,0,54] = 0
 R3558: m[16,1,27] - m[17,0,7] = 0
 R3559: m[16,1,28] - m[17,0,4] = 0
 R3560: m[16,1,29] - m[17,0,21] = 0
 R3561: m[16,1,30] - m[17,0,38] = 0
 R3562: m[16,1,31] - m[17,0,55] = 0
 R3563: m[16,1,32] - m[17,0,56] = 0
 R3564: m[16,1,33] - m[17,0,9] = 0
 R3565: m[16,1,34] - m[17,0,26] = 0
 R3566: m[16,1,35] - m[17,0,43] = 0
 R3567: m[16,1,36] - m[17,0,40] = 0
 R3568: m[16,1,37] - m[17,0,57] = 0
 R3569: m[16,1,38] - m[17,0,10] = 0
 R3570: m[16,1,39] - m[17,0,27] = 0
 R3571: m[16,1,40] - m[17,0,24] = 0
 R3572: m[16,1,41] - m[17,0,41] = 0
 R3573: m[16,1,42] - m[17,0,58] = 0
 R3574: m[16,1,43] - m[17,0,11] = 0
 R3575: m[16,1,44] - m[17,0,8] = 0
 R3576: m[16,1,45] - m[17,0,25] = 0
 R3577: m[16,1,46] - m[17,0,42] = 0
 R3578: m[16,1,47] - m[17,0,59] = 0
 R3579: m[16,1,48] - m[17,0,60] = 0
 R3580: m[16,1,49] - m[17,0,13] = 0
 R3581: m[16,1,50] - m[17,0,30] = 0
 R3582: m[16,1,51] - m[17,0,47] = 0
 R3583: m[16,1,52] - m[17,0,44] = 0
 R3584: m[16,1,53] - m[17,0,61] = 0
 R3585: m[16,1,54] - m[17,0,14] = 0
 R3586: m[16,1,55] - m[17,0,31] = 0
 R3587: m[16,1,56] - m[17,0,28] = 0
 R3588: m[16,1,57] - m[17,0,45] = 0
 R3589: m[16,1,58] - m[17,0,62] = 0
 R3590: m[16,1,59] - m[17,0,15] = 0
 R3591: m[16,1,60] - m[17,0,12] = 0
 R3592: m[16,1,61] - m[17,0,29] = 0
 R3593: m[16,1,62] - m[17,0,46] = 0
 R3594: m[16,1,63] - m[17,0,63] = 0
Bounds
Binaries
 m[0,0,0] m[0,0,1] m[0,0,2] m[0,0,3] m[0,0,4] m[0,0,5] m[0,0,6] m[0,0,7]
 m[0,0,8] m[0,0,9] m[0,0,10] m[0,0,11] m[0,0,12] m[0,0,13] m[0,0,14]
 m[0,0,15] m[0,0,16] m[0,0,17] m[0,0,18] m[0,0,19] m[0,0,20] m[0,0,21]
 m[0,0,22] m[0,0,23] m[0,0,24] m[0,0,25] m[0,0,26] m[0,0,27] m[0,0,28]
 m[0,0,29] m[0,0,30] m[0,0,31] m[0,0,32] m[0,0,33] m[0,0,34] m[0,0,35]
 m[0,0,36] m[0,0,37] m[0,0,38] m[0,0,39] m[0,0,40] m[0,0,41] m[0,0,42]
 m[0,0,43] m[0,0,44] m[0,0,45] m[0,0,46] m[0,0,47] m[0,0,48] m[0,0,49]
 m[0,0,50] m[0,0,51] m[0,0,52] m[0,0,53] m[0,0,54] m[0,0,55] m[0,0,56]
 m[0,0,57] m[0,0,58] m[0,0,59] m[0,0,60] m[0,0,61] m[0,0,62] m[0,0,63]
 m[0,1,0] m[0,1,1] m[0,1,2] m[0,1,3] m[0,1,4] m[0,1,5] m[0,1,6] m[0,1,7]
 m[0,1,8] m[0,1,9] m[0,1,10] m[0,1,11] m[0,1,12] m[0,1,13] m[0,1,14]
 m[0,1,15] m[0,1,16] m[0,1,17] m[0,1,18] m[0,1,19] m[0,1,20] m[0,1,21]
 m[0,1,22] m[0,1,23] m[0,1,24] m[0,1,25] m[0,1,26] m[0,1,27] m[0,1,28]
 m[0,1,29] m[0,1,30] m[0,1,31] m[0,1,32] m[0,1,33] m[0,1,34] m[0,1,35]
 m[0,1,36] m[0,1,37] m[0,1,38] m[0,1,39] m[0,1,40] m[0,1,41] m[0,1,42]
 m[0,1,43] m[0,1,44] m[0,1,45] m[0,1,46] m[0,1,47] m[0,1,48] m[0,1,49]
 m[0,1,50] m[0,1,51] m[0,1,52] m[0,1,53] m[0,1,54] m[0,1,55] m[0,1,56]
 m[0,1,57] m[0,1,58] m[0,1,59] m[0,1,60] m[0,1,61] m[0,1,62] m[0,1,63]
 m[1,0,0] m[1,0,1] m[1,0,2] m[1,0,3] m[1,0,4] m[1,0,5] m[1,0,6] m[1,0,7]
 m[1,0,8] m[1,0,9] m[1,0,10] m[1,0,11] m[1,0,12] m[1,0,13] m[1,0,14]
 m[1,0,15] m[1,0,16] m[1,0,17] m[1,0,18] m[1,0,19] m[1,0,20] m[1,0,21]
 m[1,0,22] m[1,0,23] m[1,0,24] m[1,0,25] m[1,0,26] m[1,0,27] m[1,0,28]
 m[1,0,29] m[1,0,30] m[1,0,31] m[1,0,32] m[1,0,33] m[1,0,34] m[1,0,35]
 m[1,0,36] m[1,0,37] m[1,0,38] m[1,0,39] m[1,0,40] m[1,0,41] m[1,0,42]
 m[1,0,43] m[1,0,44] m[1,0,45] m[1,0,46] m[1,0,47] m[1,0,48] m[1,0,49]
 m[1,0,50] m[1,0,51] m[1,0,52] m[1,0,53] m[1,0,54] m[1,0,55] m[1,0,56]
 m[1,0,57] m[1,0,58] m[1,0,59] m[1,0,60] m[1,0,61] m[1,0,62] m[1,0,63]
 m[1,1,0] m[1,1,1] m[1,1,2] m[1,1,3] m[1,1,4] m[1,1,5] m[1,1,6] m[1,1,7]
 m[1,1,8] m[1,1,9] m[1,1,10] m[1,1,11] m[1,1,12] m[1,1,13] m[1,1,14]
 m[1,1,15] m[1,1,16] m[1,1,17] m[1,1,18] m[1,1,19] m[1,1,20] m[1,1,21]
 m[1,1,22] m[1,1,23] m[1,1,24] m[1,1,25] m[1,1,26] m[1,1,27] m[1,1,28]
 m[1,1,29] m[1,1,30] m[1,1,31] m[1,1,32] m[1,1,33] m[1,1,34] m[1,1,35]
 m[1,1,36] m[1,1,37] m[1,1,38] m[1,1,39] m[1,1,40] m[1,1,41] m[1,1,42]
 m[1,1,43] m[1,1,44] m[1,1,45] m[1,1,46] m[1,1,47] m[1,1,48] m[1,1,49]
 m[1,1,50] m[1,1,51] m[1,1,52] m[1,1,53] m[1,1,54] m[1,1,55] m[1,1,56]
 m[1,1,57] m[1,1,58] m[1,1,59] m[1,1,60] m[1,1,61] m[1,1,62] m[1,1,63]
 m[2,0,0] m[2,0,1] m[2,0,2] m[2,0,3] m[2,0,4] m[2,0,5] m[2,0,6] m[2,0,7]
 m[2,0,8] m[2,0,9] m[2,0,10] m[2,0,11] m[2,0,12] m[2,0,13] m[2,0,14]
 m[2,0,15] m[2,0,16] m[2,0,17] m[2,0,18] m[2,0,19] m[2,0,20] m[2,0,21]
 m[2,0,22] m[2,0,23] m[2,0,24] m[2,0,25] m[2,0,26] m[2,0,27] m[2,0,28]
 m[2,0,29] m[2,0,30] m[2,0,31] m[2,0,32] m[2,0,33] m[2,0,34] m[2,0,35]
 m[2,0,36] m[2,0,37] m[2,0,38] m[2,0,39] m[2,0,40] m[2,0,41] m[2,0,42]
 m[2,0,43] m[2,0,44] m[2,0,45] m[2,0,46] m[2,0,47] m[2,0,48] m[2,0,49]
 m[2,0,50] m[2,0,51] m[2,0,52] m[2,0,53] m[2,0,54] m[2,0,55] m[2,0,56]
 m[2,0,57] m[2,0,58] m[2,0,59] m[2,0,60] m[2,0,61] m[2,0,62] m[2,0,63]
 m[2,1,0] m[2,1,1] m[2,1,2] m[2,1,3] m[2,1,4] m[2,1,5] m[2,1,6] m[2,1,7]
 m[2,1,8] m[2,1,9] m[2,1,10] m[2,1,11] m[2,1,12] m[2,1,13] m[2,1,14]
 m[2,1,15] m[2,1,16] m[2,1,17] m[2,1,18] m[2,1,19] m[2,1,20] m[2,1,21]
 m[2,1,22] m[2,1,23] m[2,1,24] m[2,1,25] m[2,1,26] m[2,1,27] m[2,1,28]
 m[2,1,29] m[2,1,30] m[2,1,31] m[2,1,32] m[2,1,33] m[2,1,34] m[2,1,35]
 m[2,1,36] m[2,1,37] m[2,1,38] m[2,1,39] m[2,1,40] m[2,1,41] m[2,1,42]
 m[2,1,43] m[2,1,44] m[2,1,45] m[2,1,46] m[2,1,47] m[2,1,48] m[2,1,49]
 m[2,1,50] m[2,1,51] m[2,1,52] m[2,1,53] m[2,1,54] m[2,1,55] m[2,1,56]
 m[2,1,57] m[2,1,58] m[2,1,59] m[2,1,60] m[2,1,61] m[2,1,62] m[2,1,63]
 m[3,0,0] m[3,0,1] m[3,0,2] m[3,0,3] m[3,0,4] m[3,0,5] m[3,0,6] m[3,0,7]
 m[3,0,8] m[3,0,9] m[3,0,10] m[3,0,11] m[3,0,12] m[3,0,13] m[3,0,14]
 m[3,0,15] m[3,0,16] m[3,0,17] m[3,0,18] m[3,0,19] m[3,0,20] m[3,0,21]
 m[3,0,22] m[3,0,23] m[3,0,24] m[3,0,25] m[3,0,26] m[3,0,27] m[3,0,28]
 m[3,0,29] m[3,0,30] m[3,0,31] m[3,0,32] m[3,0,33] m[3,0,34] m[3,0,35]
 m[3,0,36] m[3,0,37] m[3,0,38] m[3,0,39] m[3,0,40] m[3,0,41] m[3,0,42]
 m[3,0,43] m[3,0,44] m[3,0,45] m[3,0,46] m[3,0,47] m[3,0,48] m[3,0,49]
 m[3,0,50] m[3,0,51] m[3,0,52] m[3,0,53] m[3,0,54] m[3,0,55] m[3,0,56]
 m[3,0,57] m[3,0,58] m[3,0,59] m[3,0,60] m[3,0,61] m[3,0,62] m[3,0,63]
 m[3,1,0] m[3,1,1] m[3,1,2] m[3,1,3] m[3,1,4] m[3,1,5] m[3,1,6] m[3,1,7]
 m[3,1,8] m[3,1,9] m[3,1,10] m[3,1,11] m[3,1,12] m[3,1,13] m[3,1,14]
 m[3,1,15] m[3,1,16] m[3,1,17] m[3,1,18] m[3,1,19] m[3,1,20] m[3,1,21]
 m[3,1,22] m[3,1,23] m[3,1,24] m[3,1,25] m[3,1,26] m[3,1,27] m[3,1,28]
 m[3,1,29] m[3,1,30] m[3,1,31] m[3,1,32] m[3,1,33] m[3,1,34] m[3,1,35]
 m[3,1,36] m[3,1,37] m[3,1,38] m[3,1,39] m[3,1,40] m[3,1,41] m[3,1,42]
 m[3,1,43] m[3,1,44] m[3,1,45] m[3,1,46] m[3,1,47] m[3,1,48] m[3,1,49]
 m[3,1,50] m[3,1,51] m[3,1,52] m[3,1,53] m[3,1,54] m[3,1,55] m[3,1,56]
 m[3,1,57] m[3,1,58] m[3,1,59] m[3,1,60] m[3,1,61] m[3,1,62] m[3,1,63]
 m[4,0,0] m[4,0,1] m[4,0,2] m[4,0,3] m[4,0,4] m[4,0,5] m[4,0,6] m[4,0,7]
 m[4,0,8] m[4,0,9] m[4,0,10] m[4,0,11] m[4,0,12] m[4,0,13] m[4,0,14]
 m[4,0,15] m[4,0,16] m[4,0,17] m[4,0,18] m[4,0,19] m[4,0,20] m[4,0,21]
 m[4,0,22] m[4,0,23] m[4,0,24] m[4,0,25] m[4,0,26] m[4,0,27] m[4,0,28]
 m[4,0,29] m[4,0,30] m[4,0,31] m[4,0,32] m[4,0,33] m[4,0,34] m[4,0,35]
 m[4,0,36] m[4,0,37] m[4,0,38] m[4,0,39] m[4,0,40] m[4,0,41] m[4,0,42]
 m[4,0,43] m[4,0,44] m[4,0,45] m[4,0,46] m[4,0,47] m[4,0,48] m[4,0,49]
 m[4,0,50] m[4,0,51] m[4,0,52] m[4,0,53] m[4,0,54] m[4,0,55] m[4,0,56]
 m[4,0,57] m[4,0,58] m[4,0,59] m[4,0,60] m[4,0,61] m[4,0,62] m[4,0,63]
 m[4,1,0] m[4,1,1] m[4,1,2] m[4,1,3] m[4,1,4] m[4,1,5] m[4,1,6] m[4,1,7]
 m[4,1,8] m[4,1,9] m[4,1,10] m[4,1,11] m[4,1,12] m[4,1,13] m[4,1,14]
 m[4,1,15] m[4,1,16] m[4,1,17] m[4,1,18] m[4,1,19] m[4,1,20] m[4,1,21]
 m[4,1,22] m[4,1,23] m[4,1,24] m[4,1,25] m[4,1,26] m[4,1,27] m[4,1,28]
 m[4,1,29] m[4,1,30] m[4,1,31] m[4,1,32] m[4,1,33] m[4,1,34] m[4,1,35]
 m[4,1,36] m[4,1,37] m[4,1,38] m[4,1,39] m[4,1,40] m[4,1,41] m[4,1,42]
 m[4,1,43] m[4,1,44] m[4,1,45] m[4,1,46] m[4,1,47] m[4,1,48] m[4,1,49]
 m[4,1,50] m[4,1,51] m[4,1,52] m[4,1,53] m[4,1,54] m[4,1,55] m[4,1,56]
 m[4,1,57] m[4,1,58] m[4,1,59] m[4,1,60] m[4,1,61] m[4,1,62] m[4,1,63]
 m[5,0,0] m[5,0,1] m[5,0,2] m[5,0,3] m[5,0,4] m[5,0,5] m[5,0,6] m[5,0,7]
 m[5,0,8] m[5,0,9] m[5,0,10] m[5,0,11] m[5,0,12] m[5,0,13] m[5,0,14]
 m[5,0,15] m[5,0,16] m[5,0,17] m[5,0,18] m[5,0,19] m[5,0,20] m[5,0,21]
 m[5,0,22] m[5,0,23] m[5,0,24] m[5,0,25] m[5,0,26] m[5,0,27] m[5,0,28]
 m[5,0,29] m[5,0,30] m[5,0,31] m[5,0,32] m[5,0,33] m[5,0,34] m[5,0,35]
 m[5,0,36] m[5,0,37] m[5,0,38] m[5,0,39] m[5,0,40] m[5,0,41] m[5,0,42]
 m[5,0,43] m[5,0,44] m[5,0,45] m[5,0,46] m[5,0,47] m[5,0,48] m[5,0,49]
 m[5,0,50] m[5,0,51] m[5,0,52] m[5,0,53] m[5,0,54] m[5,0,55] m[5,0,56]
 m[5,0,57] m[5,0,58] m[5,0,59] m[5,0,60] m[5,0,61] m[5,0,62] m[5,0,63]
 m[5,1,0] m[5,1,1] m[5,1,2] m[5,1,3] m[5,1,4] m[5,1,5] m[5,1,6] m[5,1,7]
 m[5,1,8] m[5,1,9] m[5,1,10] m[5,1,11] m[5,1,12] m[5,1,13] m[5,1,14]
 m[5,1,15] m[5,1,16] m[5,1,17] m[5,1,18] m[5,1,19] m[5,1,20] m[5,1,21]
 m[5,1,22] m[5,1,23] m[5,1,24] m[5,1,25] m[5,1,26] m[5,1,27] m[5,1,28]
 m[5,1,29] m[5,1,30] m[5,1,31] m[5,1,32] m[5,1,33] m[5,1,34] m[5,1,35]
 m[5,1,36] m[5,1,37] m[5,1,38] m[5,1,39] m[5,1,40] m[5,1,41] m[5,1,42]
 m[5,1,43] m[5,1,44] m[5,1,45] m[5,1,46] m[5,1,47] m[5,1,48] m[5,1,49]
 m[5,1,50] m[5,1,51] m[5,1,52] m[5,1,53] m[5,1,54] m[5,1,55] m[5,1,56]
 m[5,1,57] m[5,1,58] m[5,1,59] m[5,1,60] m[5,1,61] m[5,1,62] m[5,1,63]
 m[6,0,0] m[6,0,1] m[6,0,2] m[6,0,3] m[6,0,4] m[6,0,5] m[6,0,6] m[6,0,7]
 m[6,0,8] m[6,0,9] m[6,0,10] m[6,0,11] m[6,0,12] m[6,0,13] m[6,0,14]
 m[6,0,15] m[6,0,16] m[6,0,17] m[6,0,18] m[6,0,19] m[6,0,20] m[6,0,21]
 m[6,0,22] m[6,0,23] m[6,0,24] m[6,0,25] m[6,0,26] m[6,0,27] m[6,0,28]
 m[6,0,29] m[6,0,30] m[6,0,31] m[6,0,32] m[6,0,33] m[6,0,34] m[6,0,35]
 m[6,0,36] m[6,0,37] m[6,0,38] m[6,0,39] m[6,0,40] m[6,0,41] m[6,0,42]
 m[6,0,43] m[6,0,44] m[6,0,45] m[6,0,46] m[6,0,47] m[6,0,48] m[6,0,49]
 m[6,0,50] m[6,0,51] m[6,0,52] m[6,0,53] m[6,0,54] m[6,0,55] m[6,0,56]
 m[6,0,57] m[6,0,58] m[6,0,59] m[6,0,60] m[6,0,61] m[6,0,62] m[6,0,63]
 m[6,1,0] m[6,1,1] m[6,1,2] m[6,1,3] m[6,1,4] m[6,1,5] m[6,1,6] m[6,1,7]
 m[6,1,8] m[6,1,9] m[6,1,10] m[6,1,11] m[6,1,12] m[6,1,13] m[6,1,14]
 m[6,1,15] m[6,1,16] m[6,1,17] m[6,1,18] m[6,1,19] m[6,1,20] m[6,1,21]
 m[6,1,22] m[6,1,23] m[6,1,24] m[6,1,25] m[6,1,26] m[6,1,27] m[6,1,28]
 m[6,1,29] m[6,1,30] m[6,1,31] m[6,1,32] m[6,1,33] m[6,1,34] m[6,1,35]
 m[6,1,36] m[6,1,37] m[6,1,38] m[6,1,39] m[6,1,40] m[6,1,41] m[6,1,42]
 m[6,1,43] m[6,1,44] m[6,1,45] m[6,1,46] m[6,1,47] m[6,1,48] m[6,1,49]
 m[6,1,50] m[6,1,51] m[6,1,52] m[6,1,53] m[6,1,54] m[6,1,55] m[6,1,56]
 m[6,1,57] m[6,1,58] m[6,1,59] m[6,1,60] m[6,1,61] m[6,1,62] m[6,1,63]
 m[7,0,0] m[7,0,1] m[7,0,2] m[7,0,3] m[7,0,4] m[7,0,5] m[7,0,6] m[7,0,7]
 m[7,0,8] m[7,0,9] m[7,0,10] m[7,0,11] m[7,0,12] m[7,0,13] m[7,0,14]
 m[7,0,15] m[7,0,16] m[7,0,17] m[7,0,18] m[7,0,19] m[7,0,20] m[7,0,21]
 m[7,0,22] m[7,0,23] m[7,0,24] m[7,0,25] m[7,0,26] m[7,0,27] m[7,0,28]
 m[7,0,29] m[7,0,30] m[7,0,31] m[7,0,32] m[7,0,33] m[7,0,34] m[7,0,35]
 m[7,0,36] m[7,0,37] m[7,0,38] m[7,0,39] m[7,0,40] m[7,0,41] m[7,0,42]
 m[7,0,43] m[7,0,44] m[7,0,45] m[7,0,46] m[7,0,47] m[7,0,48] m[7,0,49]
 m[7,0,50] m[7,0,51] m[7,0,52] m[7,0,53] m[7,0,54] m[7,0,55] m[7,0,56]
 m[7,0,57] m[7,0,58] m[7,0,59] m[7,0,60] m[7,0,61] m[7,0,62] m[7,0,63]
 m[7,1,0] m[7,1,1] m[7,1,2] m[7,1,3] m[7,1,4] m[7,1,5] m[7,1,6] m[7,1,7]
 m[7,1,8] m[7,1,9] m[7,1,10] m[7,1,11] m[7,1,12] m[7,1,13] m[7,1,14]
 m[7,1,15] m[7,1,16] m[7,1,17] m[7,1,18] m[7,1,19] m[7,1,20] m[7,1,21]
 m[7,1,22] m[7,1,23] m[7,1,24] m[7,1,25] m[7,1,26] m[7,1,27] m[7,1,28]
 m[7,1,29] m[7,1,30] m[7,1,31] m[7,1,32] m[7,1,33] m[7,1,34] m[7,1,35]
 m[7,1,36] m[7,1,37] m[7,1,38] m[7,1,39] m[7,1,40] m[7,1,41] m[7,1,42]
 m[7,1,43] m[7,1,44] m[7,1,45] m[7,1,46] m[7,1,47] m[7,1,48] m[7,1,49]
 m[7,1,50] m[7,1,51] m[7,1,52] m[7,1,53] m[7,1,54] m[7,1,55] m[7,1,56]
 m[7,1,57] m[7,1,58] m[7,1,59] m[7,1,60] m[7,1,61] m[7,1,62] m[7,1,63]
 m[8,0,0] m[8,0,1] m[8,0,2] m[8,0,3] m[8,0,4] m[8,0,5] m[8,0,6] m[8,0,7]
 m[8,0,8] m[8,0,9] m[8,0,10] m[8,0,11] m[8,0,12] m[8,0,13] m[8,0,14]
 m[8,0,15] m[8,0,16] m[8,0,17] m[8,0,18] m[8,0,19] m[8,0,20] m[8,0,21]
 m[8,0,22] m[8,0,23] m[8,0,24] m[8,0,25] m[8,0,26] m[8,0,27] m[8,0,28]
 m[8,0,29] m[8,0,30] m[8,0,31] m[8,0,32] m[8,0,33] m[8,0,34] m[8,0,35]
 m[8,0,36] m[8,0,37] m[8,0,38] m[8,0,39] m[8,0,40] m[8,0,41] m[8,0,42]
 m[8,0,43] m[8,0,44] m[8,0,45] m[8,0,46] m[8,0,47] m[8,0,48] m[8,0,49]
 m[8,0,50] m[8,0,51] m[8,0,52] m[8,0,53] m[8,0,54] m[8,0,55] m[8,0,56]
 m[8,0,57] m[8,0,58] m[8,0,59] m[8,0,60] m[8,0,61] m[8,0,62] m[8,0,63]
 m[8,1,0] m[8,1,1] m[8,1,2] m[8,1,3] m[8,1,4] m[8,1,5] m[8,1,6] m[8,1,7]
 m[8,1,8] m[8,1,9] m[8,1,10] m[8,1,11] m[8,1,12] m[8,1,13] m[8,1,14]
 m[8,1,15] m[8,1,16] m[8,1,17] m[8,1,18] m[8,1,19] m[8,1,20] m[8,1,21]
 m[8,1,22] m[8,1,23] m[8,1,24] m[8,1,25] m[8,1,26] m[8,1,27] m[8,1,28]
 m[8,1,29] m[8,1,30] m[8,1,31] m[8,1,32] m[8,1,33] m[8,1,34] m[8,1,35]
 m[8,1,36] m[8,1,37] m[8,1,38] m[8,1,39] m[8,1,40] m[8,1,41] m[8,1,42]
 m[8,1,43] m[8,1,44] m[8,1,45] m[8,1,46] m[8,1,47] m[8,1,48] m[8,1,49]
 m[8,1,50] m[8,1,51] m[8,1,52] m[8,1,53] m[8,1,54] m[8,1,55] m[8,1,56]
 m[8,1,57] m[8,1,58] m[8,1,59] m[8,1,60] m[8,1,61] m[8,1,62] m[8,1,63]
 m[9,0,0] m[9,0,1] m[9,0,2] m[9,0,3] m[9,0,4] m[9,0,5] m[9,0,6] m[9,0,7]
 m[9,0,8] m[9,0,9] m[9,0,10] m[9,0,11] m[9,0,12] m[9,0,13] m[9,0,14]
 m[9,0,15] m[9,0,16] m[9,0,17] m[9,0,18] m[9,0,19] m[9,0,20] m[9,0,21]
 m[9,0,22] m[9,0,23] m[9,0,24] m[9,0,25] m[9,0,26] m[9,0,27] m[9,0,28]
 m[9,0,29] m[9,0,30] m[9,0,31] m[9,0,32] m[9,0,33] m[9,0,34] m[9,0,35]
 m[9,0,36] m[9,0,37] m[9,0,38] m[9,0,39] m[9,0,40] m[9,0,41] m[9,0,42]
 m[9,0,43] m[9,0,44] m[9,0,45] m[9,0,46] m[9,0,47] m[9,0,48] m[9,0,49]
 m[9,0,50] m[9,0,51] m[9,0,52] m[9,0,53] m[9,0,54] m[9,0,55] m[9,0,56]
 m[9,0,57] m[9,0,58] m[9,0,59] m[9,0,60] m[9,0,61] m[9,0,62] m[9,0,63]
 m[9,1,0] m[9,1,1] m[9,1,2] m[9,1,3] m[9,1,4] m[9,1,5] m[9,1,6] m[9,1,7]
 m[9,1,8] m[9,1,9] m[9,1,10] m[9,1,11] m[9,1,12] m[9,1,13] m[9,1,14]
 m[9,1,15] m[9,1,16] m[9,1,17] m[9,1,18] m[9,1,19] m[9,1,20] m[9,1,21]
 m[9,1,22] m[9,1,23] m[9,1,24] m[9,1,25] m[9,1,26] m[9,1,27] m[9,1,28]
 m[9,1,29] m[9,1,30] m[9,1,31] m[9,1,32] m[9,1,33] m[9,1,34] m[9,1,35]
 m[9,1,36] m[9,1,37] m[9,1,38] m[9,1,39] m[9,1,40] m[9,1,41] m[9,1,42]
 m[9,1,43] m[9,1,44] m[9,1,45] m[9,1,46] m[9,1,47] m[9,1,48] m[9,1,49]
 m[9,1,50] m[9,1,51] m[9,1,52] m[9,1,53] m[9,1,54] m[9,1,55] m[9,1,56]
 m[9,1,57] m[9,1,58] m[9,1,59] m[9,1,60] m[9,1,61] m[9,1,62] m[9,1,63]
 m[10,0,0] m[10,0,1] m[10,0,2] m[10,0,3] m[10,0,4] m[10,0,5] m[10,0,6]
 m[10,0,7] m[10,0,8] m[10,0,9] m[10,0,10] m[10,0,11] m[10,0,12] m[10,0,13]
 m[10,0,14] m[10,0,15] m[10,0,16] m[10,0,17] m[10,0,18] m[10,0,19]
 m[10,0,20] m[10,0,21] m[10,0,22] m[10,0,23] m[10,0,24] m[10,0,25]
 m[10,0,26] m[10,0,27] m[10,0,28] m[10,0,29] m[10,0,30] m[10,0,31]
 m[10,0,32] m[10,0,33] m[10,0,34] m[10,0,35] m[10,0,36] m[10,0,37]
 m[10,0,38] m[10,0,39] m[10,0,40] m[10,0,41] m[10,0,42] m[10,0,43]
 m[10,0,44] m[10,0,45] m[10,0,46] m[10,0,47] m[10,0,48] m[10,0,49]
 m[10,0,50] m[10,0,51] m[10,0,52] m[10,0,53] m[10,0,54] m[10,0,55]
 m[10,0,56] m[10,0,57] m[10,0,58] m[10,0,59] m[10,0,60] m[10,0,61]
 m[10,0,62] m[10,0,63] m[10,1,0] m[10,1,1] m[10,1,2] m[10,1,3] m[10,1,4]
 m[10,1,5] m[10,1,6] m[10,1,7] m[10,1,8] m[10,1,9] m[10,1,10] m[10,1,11]
 m[10,1,12] m[10,1,13] m[10,1,14] m[10,1,15] m[10,1,16] m[10,1,17]
 m[10,1,18] m[10,1,19] m[10,1,20] m[10,1,21] m[10,1,22] m[10,1,23]
 m[10,1,24] m[10,1,25] m[10,1,26] m[10,1,27] m[10,1,28] m[10,1,29]
 m[10,1,30] m[10,1,31] m[10,1,32] m[10,1,33] m[10,1,34] m[10,1,35]
 m[10,1,36] m[10,1,37] m[10,1,38] m[10,1,39] m[10,1,40] m[10,1,41]
 m[10,1,42] m[10,1,43] m[10,1,44] m[10,1,45] m[10,1,46] m[10,1,47]
 m[10,1,48] m[10,1,49] m[10,1,50] m[10,1,51] m[10,1,52] m[10,1,53]
 m[10,1,54] m[10,1,55] m[10,1,56] m[10,1,57] m[10,1,58] m[10,1,59]
 m[10,1,60] m[10,1,61] m[10,1,62] m[10,1,63] m[11,0,0] m[11,0,1] m[11,0,2]
 m[11,0,3] m[11,0,4] m[11,0,5] m[11,0,6] m[11,0,7] m[11,0,8] m[11,0,9]
 m[11,0,10] m[11,0,11] m[11,0,12] m[11,0,13] m[11,0,14] m[11,0,15]
 m[11,0,16] m[11,0,17] m[11,0,18] m[11,0,19] m[11,0,20] m[11,0,21]
 m[11,0,22] m[11,0,23] m[11,0,24] m[11,0,25] m[11,0,26] m[11,0,27]
 m[11,0,28] m[11,0,29] m[11,0,30] m[11,0,31] m[11,0,32] m[11,0,33]
 m[11,0,34] m[11,0,35] m[11,0,36] m[11,0,37] m[11,0,38] m[11,0,39]
 m[11,0,40] m[11,0,41] m[11,0,42] m[11,0,43] m[11,0,44] m[11,0,45]
 m[11,0,46] m[11,0,47] m[11,0,48] m[11,0,49] m[11,0,50] m[11,0,51]
 m[11,0,52] m[11,0,53] m[11,0,54] m[11,0,55] m[11,0,56] m[11,0,57]
 m[11,0,58] m[11,0,59] m[11,0,60] m[11,0,61] m[11,0,62] m[11,0,63]
 m[11,1,0] m[11,1,1] m[11,1,2] m[11,1,3] m[11,1,4] m[11,1,5] m[11,1,6]
 m[11,1,7] m[11,1,8] m[11,1,9] m[11,1,10] m[11,1,11] m[11,1,12] m[11,1,13]
 m[11,1,14] m[11,1,15] m[11,1,16] m[11,1,17] m[11,1,18] m[11,1,19]
 m[11,1,20] m[11,1,21] m[11,1,22] m[11,1,23] m[11,1,24] m[11,1,25]
 m[11,1,26] m[11,1,27] m[11,1,28] m[11,1,29] m[11,1,30] m[11,1,31]
 m[11,1,32] m[11,1,33] m[11,1,34] m[11,1,35] m[11,1,36] m[11,1,37]
 m[11,1,38] m[11,1,39] m[11,1,40] m[11,1,41] m[11,1,42] m[11,1,43]
 m[11,1,44] m[11,1,45] m[11,1,46] m[11,1,47] m[11,1,48] m[11,1,49]
 m[11,1,50] m[11,1,51] m[11,1,52] m[11,1,53] m[11,1,54] m[11,1,55]
 m[11,1,56] m[11,1,57] m[11,1,58] m[11,1,59] m[11,1,60] m[11,1,61]
 m[11,1,62] m[11,1,63] m[12,0,0] m[12,0,1] m[12,0,2] m[12,0,3] m[12,0,4]
 m[12,0,5] m[12,0,6] m[12,0,7] m[12,0,8] m[12,0,9] m[12,0,10] m[12,0,11]
 m[12,0,12] m[12,0,13] m[12,0,14] m[12,0,15] m[12,0,16] m[12,0,17]
 m[12,0,18] m[12,0,19] m[12,0,20] m[12,0,21] m[12,0,22] m[12,0,23]
 m[12,0,24] m[12,0,25] m[12,0,26] m[12,0,27] m[12,0,28] m[12,0,29]
 m[12,0,30] m[12,0,31] m[12,0,32] m[12,0,33] m[12,0,34] m[12,0,35]
 m[12,0,36] m[12,0,37] m[12,0,38] m[12,0,39] m[12,0,40] m[12,0,41]
 m[12,0,42] m[12,0,43] m[12,0,44] m[12,0,45] m[12,0,46] m[12,0,47]
 m[12,0,48] m[12,0,49] m[12,0,50] m[12,0,51] m[12,0,52] m[12,0,53]
 m[12,0,54] m[12,0,55] m[12,0,56] m[12,0,57] m[12,0,58] m[12,0,59]
 m[12,0,60] m[12,0,61] m[12,0,62] m[12,0,63] m[12,1,0] m[12,1,1] m[12,1,2]
 m[12,1,3] m[12,1,4] m[12,1,5] m[12,1,6] m[12,1,7] m[12,1,8] m[12,1,9]
 m[12,1,10] m[12,1,11] m[12,1,12] m[12,1,13] m[12,1,14] m[12,1,15]
 m[12,1,16] m[12,1,17] m[12,1,18] m[12,1,19] m[12,1,20] m[12,1,21]
 m[12,1,22] m[12,1,23] m[12,1,24] m[12,1,25] m[12,1,26] m[12,1,27]
 m[12,1,28] m[12,1,29] m[12,1,30] m[12,1,31] m[12,1,32] m[12,1,33]
 m[12,1,34] m[12,1,35] m[12,1,36] m[12,1,37] m[12,1,38] m[12,1,39]
 m[12,1,40] m[12,1,41] m[12,1,42] m[12,1,43] m[12,1,44] m[12,1,45]
 m[12,1,46] m[12,1,47] m[12,1,48] m[12,1,49] m[12,1,50] m[12,1,51]
 m[12,1,52] m[12,1,53] m[12,1,54] m[12,1,55] m[12,1,56] m[12,1,57]
 m[12,1,58] m[12,1,59] m[12,1,60] m[12,1,61] m[12,1,62] m[12,1,63]
 m[13,0,0] m[13,0,1] m[13,0,2] m[13,0,3] m[13,0,4] m[13,0,5] m[13,0,6]
 m[13,0,7] m[13,0,8] m[13,0,9] m[13,0,10] m[13,0,11] m[13,0,12] m[13,0,13]
 m[13,0,14] m[13,0,15] m[13,0,16] m[13,0,17] m[13,0,18] m[13,0,19]
 m[13,0,20] m[13,0,21] m[13,0,22] m[13,0,23] m[13,0,24] m[13,0,25]
 m[13,0,26] m[13,0,27] m[13,0,28] m[13,0,29] m[13,0,30] m[13,0,31]
 m[13,0,32] m[13,0,33] m[13,0,34] m[13,0,35] m[13,0,36] m[13,0,37]
 m[13,0,38] m[13,0,39] m[13,0,40] m[13,0,41] m[13,0,42] m[13,0,43]
 m[13,0,44] m[13,0,45] m[13,0,46] m[13,0,47] m[13,0,48] m[13,0,49]
 m[13,0,50] m[13,0,51] m[13,0,52] m[13,0,53] m[13,0,54] m[13,0,55]
 m[13,0,56] m[13,0,57] m[13,0,58] m[13,0,59] m[13,0,60] m[13,0,61]
 m[13,0,62] m[13,0,63] m[13,1,0] m[13,1,1] m[13,1,2] m[13,1,3] m[13,1,4]
 m[13,1,5] m[13,1,6] m[13,1,7] m[13,1,8] m[13,1,9] m[13,1,10] m[13,1,11]
 m[13,1,12] m[13,1,13] m[13,1,14] m[13,1,15] m[13,1,16] m[13,1,17]
 m[13,1,18] m[13,1,19] m[13,1,20] m[13,1,21] m[13,1,22] m[13,1,23]
 m[13,1,24] m[13,1,25] m[13,1,26] m[13,1,27] m[13,1,28] m[13,1,29]
 m[13,1,30] m[13,1,31] m[13,1,32] m[13,1,33] m[13,1,34] m[13,1,35]
 m[13,1,36] m[13,1,37] m[13,1,38] m[13,1,39] m[13,1,40] m[13,1,41]
 m[13,1,42] m[13,1,43] m[13,1,44] m[13,1,45] m[13,1,46] m[13,1,47]
 m[13,1,48] m[13,1,49] m[13,1,50] m[13,1,51] m[13,1,52] m[13,1,53]
 m[13,1,54] m[13,1,55] m[13,1,56] m[13,1,57] m[13,1,58] m[13,1,59]
 m[13,1,60] m[13,1,61] m[13,1,62] m[13,1,63] m[14,0,0] m[14,0,1] m[14,0,2]
 m[14,0,3] m[14,0,4] m[14,0,5] m[14,0,6] m[14,0,7] m[14,0,8] m[14,0,9]
 m[14,0,10] m[14,0,11] m[14,0,12] m[14,0,13] m[14,0,14] m[14,0,15]
 m[14,0,16] m[14,0,17] m[14,0,18] m[14,0,19] m[14,0,20] m[14,0,21]
 m[14,0,22] m[14,0,23] m[14,0,24] m[14,0,25] m[14,0,26] m[14,0,27]
 m[14,0,28] m[14,0,29] m[14,0,30] m[14,0,31] m[14,0,32] m[14,0,33]
 m[14,0,34] m[14,0,35] m[14,0,36] m[14,0,37] m[14,0,38] m[14,0,39]
 m[14,0,40] m[14,0,41] m[14,0,42] m[14,0,43] m[14,0,44] m[14,0,45]
 m[14,0,46] m[14,0,47] m[14,0,48] m[14,0,49] m[14,0,50] m[14,0,51]
 m[14,0,52] m[14,0,53] m[14,0,54] m[14,0,55] m[14,0,56] m[14,0,57]
 m[14,0,58] m[14,0,59] m[14,0,60] m[14,0,61] m[14,0,62] m[14,0,63]
 m[14,1,0] m[14,1,1] m[14,1,2] m[14,1,3] m[14,1,4] m[14,1,5] m[14,1,6]
 m[14,1,7] m[14,1,8] m[14,1,9] m[14,1,10] m[14,1,11] m[14,1,12] m[14,1,13]
 m[14,1,14] m[14,1,15] m[14,1,16] m[14,1,17] m[14,1,18] m[14,1,19]
 m[14,1,20] m[14,1,21] m[14,1,22] m[14,1,23] m[14,1,24] m[14,1,25]
 m[14,1,26] m[14,1,27] m[14,1,28] m[14,1,29] m[14,1,30] m[14,1,31]
 m[14,1,32] m[14,1,33] m[14,1,34] m[14,1,35] m[14,1,36] m[14,1,37]
 m[14,1,38] m[14,1,39] m[14,1,40] m[14,1,41] m[14,1,42] m[14,1,43]
 m[14,1,44] m[14,1,45] m[14,1,46] m[14,1,47] m[14,1,48] m[14,1,49]
 m[14,1,50] m[14,1,51] m[14,1,52] m[14,1,53] m[14,1,54] m[14,1,55]
 m[14,1,56] m[14,1,57] m[14,1,58] m[14,1,59] m[14,1,60] m[14,1,61]
 m[14,1,62] m[14,1,63] m[15,0,0] m[15,0,1] m[15,0,2] m[15,0,3] m[15,0,4]
 m[15,0,5] m[15,0,6] m[15,0,7] m[15,0,8] m[15,0,9] m[15,0,10] m[15,0,11]
 m[15,0,12] m[15,0,13] m[15,0,14] m[15,0,15] m[15,0,16] m[15,0,17]
 m[15,0,18] m[15,0,19] m[15,0,20] m[15,0,21] m[15,0,22] m[15,0,23]
 m[15,0,24] m[15,0,25] m[15,0,26] m[15,0,27] m[15,0,28] m[15,0,29]
 m[15,0,30] m[15,0,31] m[15,0,32] m[15,0,33] m[15,0,34] m[15,0,35]
 m[15,0,36] m[15,0,37] m[15,0,38] m[15,0,39] m[15,0,40] m[15,0,41]
 m[15,0,42] m[15,0,43] m[15,0,44] m[15,0,45] m[15,0,46] m[15,0,47]
 m[15,0,48] m[15,0,49] m[15,0,50] m[15,0,51] m[15,0,52] m[15,0,53]
 m[15,0,54] m[15,0,55] m[15,0,56] m[15,0,57] m[15,0,58] m[15,0,59]
 m[15,0,60] m[15,0,61] m[15,0,62] m[15,0,63] m[15,1,0] m[15,1,1] m[15,1,2]
 m[15,1,3] m[15,1,4] m[15,1,5] m[15,1,6] m[15,1,7] m[15,1,8] m[15,1,9]
 m[15,1,10] m[15,1,11] m[15,1,12] m[15,1,13] m[15,1,14] m[15,1,15]
 m[15,1,16] m[15,1,17] m[15,1,18] m[15,1,19] m[15,1,20] m[15,1,21]
 m[15,1,22] m[15,1,23] m[15,1,24] m[15,1,25] m[15,1,26] m[15,1,27]
 m[15,1,28] m[15,1,29] m[15,1,30] m[15,1,31] m[15,1,32] m[15,1,33]
 m[15,1,34] m[15,1,35] m[15,1,36] m[15,1,37] m[15,1,38] m[15,1,39]
 m[15,1,40] m[15,1,41] m[15,1,42] m[15,1,43] m[15,1,44] m[15,1,45]
 m[15,1,46] m[15,1,47] m[15,1,48] m[15,1,49] m[15,1,50] m[15,1,51]
 m[15,1,52] m[15,1,53] m[15,1,54] m[15,1,55] m[15,1,56] m[15,1,57]
 m[15,1,58] m[15,1,59] m[15,1,60] m[15,1,61] m[15,1,62] m[15,1,63]
 m[16,0,0] m[16,0,1] m[16,0,2] m[16,0,3] m[16,0,4] m[16,0,5] m[16,0,6]
 m[16,0,7] m[16,0,8] m[16,0,9] m[16,0,10] m[16,0,11] m[16,0,12] m[16,0,13]
 m[16,0,14] m[16,0,15] m[16,0,16] m[16,0,17] m[16,0,18] m[16,0,19]
 m[16,0,20] m[16,0,21] m[16,0,22] m[16,0,23] m[16,0,24] m[16,0,25]
 m[16,0,26] m[16,0,27] m[16,0,28] m[16,0,29] m[16,0,30] m[16,0,31]
 m[16,0,32] m[16,0,33] m[16,0,34] m[16,0,35] m[16,0,36] m[16,0,37]
 m[16,0,38] m[16,0,39] m[16,0,40] m[16,0,41] m[16,0,42] m[16,0,43]
 m[16,0,44] m[16,0,45] m[16,0,46] m[16,0,47] m[16,0,48] m[16,0,49]
 m[16,0,50] m[16,0,51] m[16,0,52] m[16,0,53] m[16,0,54] m[16,0,55]
 m[16,0,56] m[16,0,57] m[16,0,58] m[16,0,59] m[16,0,60] m[16,0,61]
 m[16,0,62] m[16,0,63] m[16,1,0] m[16,1,1] m[16,1,2] m[16,1,3] m[16,1,4]
 m[16,1,5] m[16,1,6] m[16,1,7] m[16,1,8] m[16,1,9] m[16,1,10] m[16,1,11]
 m[16,1,12] m[16,1,13] m[16,1,14] m[16,1,15] m[16,1,16] m[16,1,17]
 m[16,1,18] m[16,1,19] m[16,1,20] m[16,1,21] m[16,1,22] m[16,1,23]
 m[16,1,24] m[16,1,25] m[16,1,26] m[16,1,27] m[16,1,28] m[16,1,29]
 m[16,1,30] m[16,1,31] m[16,1,32] m[16,1,33] m[16,1,34] m[16,1,35]
 m[16,1,36] m[16,1,37] m[16,1,38] m[16,1,39] m[16,1,40] m[16,1,41]
 m[16,1,42] m[16,1,43] m[16,1,44] m[16,1,45] m[16,1,46] m[16,1,47]
 m[16,1,48] m[16,1,49] m[16,1,50] m[16,1,51] m[16,1,52] m[16,1,53]
 m[16,1,54] m[16,1,55] m[16,1,56] m[16,1,57] m[16,1,58] m[16,1,59]
 m[16,1,60] m[16,1,61] m[16,1,62] m[16,1,63] m[17,0,0] m[17,0,1] m[17,0,2]
 m[17,0,3] m[17,0,4] m[17,0,5] m[17,0,6] m[17,0,7] m[17,0,8] m[17,0,9]
 m[17,0,10] m[17,0,11] m[17,0,12] m[17,0,13] m[17,0,14] m[17,0,15]
 m[17,0,16] m[17,0,17] m[17,0,18] m[17,0,19] m[17,0,20] m[17,0,21]
 m[17,0,22] m[17,0,23] m[17,0,24] m[17,0,25] m[17,0,26] m[17,0,27]
 m[17,0,28] m[17,0,29] m[17,0,30] m[17,0,31] m[17,0,32] m[17,0,33]
 m[17,0,34] m[17,0,35] m[17,0,36] m[17,0,37] m[17,0,38] m[17,0,39]
 m[17,0,40] m[17,0,41] m[17,0,42] m[17,0,43] m[17,0,44] m[17,0,45]
 m[17,0,46] m[17,0,47] m[17,0,48] m[17,0,49] m[17,0,50] m[17,0,51]
 m[17,0,52] m[17,0,53] m[17,0,54] m[17,0,55] m[17,0,56] m[17,0,57]
 m[17,0,58] m[17,0,59] m[17,0,60] m[17,0,61] m[17,0,62] m[17,0,63]
 m[17,1,0] m[17,1,1] m[17,1,2] m[17,1,3] m[17,1,4] m[17,1,5] m[17,1,6]
 m[17,1,7] m[17,1,8] m[17,1,9] m[17,1,10] m[17,1,11] m[17,1,12] m[17,1,13]
 m[17,1,14] m[17,1,15] m[17,1,16] m[17,1,17] m[17,1,18] m[17,1,19]
 m[17,1,20] m[17,1,21] m[17,1,22] m[17,1,23] m[17,1,24] m[17,1,25]
 m[17,1,26] m[17,1,27] m[17,1,28] m[17,1,29] m[17,1,30] m[17,1,31]
 m[17,1,32] m[17,1,33] m[17,1,34] m[17,1,35] m[17,1,36] m[17,1,37]
 m[17,1,38] m[17,1,39] m[17,1,40] m[17,1,41] m[17,1,42] m[17,1,43]
 m[17,1,44] m[17,1,45] m[17,1,46] m[17,1,47] m[17,1,48] m[17,1,49]
 m[17,1,50] m[17,1,51] m[17,1,52] m[17,1,53] m[17,1,54] m[17,1,55]
 m[17,1,56] m[17,1,57] m[17,1,58] m[17,1,59] m[17,1,60] m[17,1,61]
 m[17,1,62] m[17,1,63] c[0,0,0.0] c[0,0,-3.0] c[0,0,-2.0] c[0,0,-1.41504]
 c[0,0,-1.0] c[0,1,0.0] c[0,1,-3.0] c[0,1,-2.0] c[0,1,-1.41504] c[0,1,-1.0]
 c[0,2,0.0] c[0,2,-3.0] c[0,2,-2.0] c[0,2,-1.41504] c[0,2,-1.0] c[0,3,0.0]
 c[0,3,-3.0] c[0,3,-2.0] c[0,3,-1.41504] c[0,3,-1.0] c[0,4,0.0] c[0,4,-3.0]
 c[0,4,-2.0] c[0,4,-1.41504] c[0,4,-1.0] c[0,5,0.0] c[0,5,-3.0] c[0,5,-2.0]
 c[0,5,-1.41504] c[0,5,-1.0] c[0,6,0.0] c[0,6,-3.0] c[0,6,-2.0]
 c[0,6,-1.41504] c[0,6,-1.0] c[0,7,0.0] c[0,7,-3.0] c[0,7,-2.0]
 c[0,7,-1.41504] c[0,7,-1.0] c[0,8,0.0] c[0,8,-3.0] c[0,8,-2.0]
 c[0,8,-1.41504] c[0,8,-1.0] c[0,9,0.0] c[0,9,-3.0] c[0,9,-2.0]
 c[0,9,-1.41504] c[0,9,-1.0] c[0,10,0.0] c[0,10,-3.0] c[0,10,-2.0]
 c[0,10,-1.41504] c[0,10,-1.0] c[0,11,0.0] c[0,11,-3.0] c[0,11,-2.0]
 c[0,11,-1.41504] c[0,11,-1.0] c[0,12,0.0] c[0,12,-3.0] c[0,12,-2.0]
 c[0,12,-1.41504] c[0,12,-1.0] c[0,13,0.0] c[0,13,-3.0] c[0,13,-2.0]
 c[0,13,-1.41504] c[0,13,-1.0] c[0,14,0.0] c[0,14,-3.0] c[0,14,-2.0]
 c[0,14,-1.41504] c[0,14,-1.0] c[0,15,0.0] c[0,15,-3.0] c[0,15,-2.0]
 c[0,15,-1.41504] c[0,15,-1.0] c[1,0,0.0] c[1,0,-3.0] c[1,0,-2.0]
 c[1,0,-1.41504] c[1,0,-1.0] c[1,1,0.0] c[1,1,-3.0] c[1,1,-2.0]
 c[1,1,-1.41504] c[1,1,-1.0] c[1,2,0.0] c[1,2,-3.0] c[1,2,-2.0]
 c[1,2,-1.41504] c[1,2,-1.0] c[1,3,0.0] c[1,3,-3.0] c[1,3,-2.0]
 c[1,3,-1.41504] c[1,3,-1.0] c[1,4,0.0] c[1,4,-3.0] c[1,4,-2.0]
 c[1,4,-1.41504] c[1,4,-1.0] c[1,5,0.0] c[1,5,-3.0] c[1,5,-2.0]
 c[1,5,-1.41504] c[1,5,-1.0] c[1,6,0.0] c[1,6,-3.0] c[1,6,-2.0]
 c[1,6,-1.41504] c[1,6,-1.0] c[1,7,0.0] c[1,7,-3.0] c[1,7,-2.0]
 c[1,7,-1.41504] c[1,7,-1.0] c[1,8,0.0] c[1,8,-3.0] c[1,8,-2.0]
 c[1,8,-1.41504] c[1,8,-1.0] c[1,9,0.0] c[1,9,-3.0] c[1,9,-2.0]
 c[1,9,-1.41504] c[1,9,-1.0] c[1,10,0.0] c[1,10,-3.0] c[1,10,-2.0]
 c[1,10,-1.41504] c[1,10,-1.0] c[1,11,0.0] c[1,11,-3.0] c[1,11,-2.0]
 c[1,11,-1.41504] c[1,11,-1.0] c[1,12,0.0] c[1,12,-3.0] c[1,12,-2.0]
 c[1,12,-1.41504] c[1,12,-1.0] c[1,13,0.0] c[1,13,-3.0] c[1,13,-2.0]
 c[1,13,-1.41504] c[1,13,-1.0] c[1,14,0.0] c[1,14,-3.0] c[1,14,-2.0]
 c[1,14,-1.41504] c[1,14,-1.0] c[1,15,0.0] c[1,15,-3.0] c[1,15,-2.0]
 c[1,15,-1.41504] c[1,15,-1.0] c[2,0,0.0] c[2,0,-3.0] c[2,0,-2.0]
 c[2,0,-1.41504] c[2,0,-1.0] c[2,1,0.0] c[2,1,-3.0] c[2,1,-2.0]
 c[2,1,-1.41504] c[2,1,-1.0] c[2,2,0.0] c[2,2,-3.0] c[2,2,-2.0]
 c[2,2,-1.41504] c[2,2,-1.0] c[2,3,0.0] c[2,3,-3.0] c[2,3,-2.0]
 c[2,3,-1.41504] c[2,3,-1.0] c[2,4,0.0] c[2,4,-3.0] c[2,4,-2.0]
 c[2,4,-1.41504] c[2,4,-1.0] c[2,5,0.0] c[2,5,-3.0] c[2,5,-2.0]
 c[2,5,-1.41504] c[2,5,-1.0] c[2,6,0.0] c[2,6,-3.0] c[2,6,-2.0]
 c[2,6,-1.41504] c[2,6,-1.0] c[2,7,0.0] c[2,7,-3.0] c[2,7,-2.0]
 c[2,7,-1.41504] c[2,7,-1.0] c[2,8,0.0] c[2,8,-3.0] c[2,8,-2.0]
 c[2,8,-1.41504] c[2,8,-1.0] c[2,9,0.0] c[2,9,-3.0] c[2,9,-2.0]
 c[2,9,-1.41504] c[2,9,-1.0] c[2,10,0.0] c[2,10,-3.0] c[2,10,-2.0]
 c[2,10,-1.41504] c[2,10,-1.0] c[2,11,0.0] c[2,11,-3.0] c[2,11,-2.0]
 c[2,11,-1.41504] c[2,11,-1.0] c[2,12,0.0] c[2,12,-3.0] c[2,12,-2.0]
 c[2,12,-1.41504] c[2,12,-1.0] c[2,13,0.0] c[2,13,-3.0] c[2,13,-2.0]
 c[2,13,-1.41504] c[2,13,-1.0] c[2,14,0.0] c[2,14,-3.0] c[2,14,-2.0]
 c[2,14,-1.41504] c[2,14,-1.0] c[2,15,0.0] c[2,15,-3.0] c[2,15,-2.0]
 c[2,15,-1.41504] c[2,15,-1.0] c[3,0,0.0] c[3,0,-3.0] c[3,0,-2.0]
 c[3,0,-1.41504] c[3,0,-1.0] c[3,1,0.0] c[3,1,-3.0] c[3,1,-2.0]
 c[3,1,-1.41504] c[3,1,-1.0] c[3,2,0.0] c[3,2,-3.0] c[3,2,-2.0]
 c[3,2,-1.41504] c[3,2,-1.0] c[3,3,0.0] c[3,3,-3.0] c[3,3,-2.0]
 c[3,3,-1.41504] c[3,3,-1.0] c[3,4,0.0] c[3,4,-3.0] c[3,4,-2.0]
 c[3,4,-1.41504] c[3,4,-1.0] c[3,5,0.0] c[3,5,-3.0] c[3,5,-2.0]
 c[3,5,-1.41504] c[3,5,-1.0] c[3,6,0.0] c[3,6,-3.0] c[3,6,-2.0]
 c[3,6,-1.41504] c[3,6,-1.0] c[3,7,0.0] c[3,7,-3.0] c[3,7,-2.0]
 c[3,7,-1.41504] c[3,7,-1.0] c[3,8,0.0] c[3,8,-3.0] c[3,8,-2.0]
 c[3,8,-1.41504] c[3,8,-1.0] c[3,9,0.0] c[3,9,-3.0] c[3,9,-2.0]
 c[3,9,-1.41504] c[3,9,-1.0] c[3,10,0.0] c[3,10,-3.0] c[3,10,-2.0]
 c[3,10,-1.41504] c[3,10,-1.0] c[3,11,0.0] c[3,11,-3.0] c[3,11,-2.0]
 c[3,11,-1.41504] c[3,11,-1.0] c[3,12,0.0] c[3,12,-3.0] c[3,12,-2.0]
 c[3,12,-1.41504] c[3,12,-1.0] c[3,13,0.0] c[3,13,-3.0] c[3,13,-2.0]
 c[3,13,-1.41504] c[3,13,-1.0] c[3,14,0.0] c[3,14,-3.0] c[3,14,-2.0]
 c[3,14,-1.41504] c[3,14,-1.0] c[3,15,0.0] c[3,15,-3.0] c[3,15,-2.0]
 c[3,15,-1.41504] c[3,15,-1.0] c[4,0,0.0] c[4,0,-3.0] c[4,0,-2.0]
 c[4,0,-1.41504] c[4,0,-1.0] c[4,1,0.0] c[4,1,-3.0] c[4,1,-2.0]
 c[4,1,-1.41504] c[4,1,-1.0] c[4,2,0.0] c[4,2,-3.0] c[4,2,-2.0]
 c[4,2,-1.41504] c[4,2,-1.0] c[4,3,0.0] c[4,3,-3.0] c[4,3,-2.0]
 c[4,3,-1.41504] c[4,3,-1.0] c[4,4,0.0] c[4,4,-3.0] c[4,4,-2.0]
 c[4,4,-1.41504] c[4,4,-1.0] c[4,5,0.0] c[4,5,-3.0] c[4,5,-2.0]
 c[4,5,-1.41504] c[4,5,-1.0] c[4,6,0.0] c[4,6,-3.0] c[4,6,-2.0]
 c[4,6,-1.41504] c[4,6,-1.0] c[4,7,0.0] c[4,7,-3.0] c[4,7,-2.0]
 c[4,7,-1.41504] c[4,7,-1.0] c[4,8,0.0] c[4,8,-3.0] c[4,8,-2.0]
 c[4,8,-1.41504] c[4,8,-1.0] c[4,9,0.0] c[4,9,-3.0] c[4,9,-2.0]
 c[4,9,-1.41504] c[4,9,-1.0] c[4,10,0.0] c[4,10,-3.0] c[4,10,-2.0]
 c[4,10,-1.41504] c[4,10,-1.0] c[4,11,0.0] c[4,11,-3.0] c[4,11,-2.0]
 c[4,11,-1.41504] c[4,11,-1.0] c[4,12,0.0] c[4,12,-3.0] c[4,12,-2.0]
 c[4,12,-1.41504] c[4,12,-1.0] c[4,13,0.0] c[4,13,-3.0] c[4,13,-2.0]
 c[4,13,-1.41504] c[4,13,-1.0] c[4,14,0.0] c[4,14,-3.0] c[4,14,-2.0]
 c[4,14,-1.41504] c[4,14,-1.0] c[4,15,0.0] c[4,15,-3.0] c[4,15,-2.0]
 c[4,15,-1.41504] c[4,15,-1.0] c[5,0,0.0] c[5,0,-3.0] c[5,0,-2.0]
 c[5,0,-1.41504] c[5,0,-1.0] c[5,1,0.0] c[5,1,-3.0] c[5,1,-2.0]
 c[5,1,-1.41504] c[5,1,-1.0] c[5,2,0.0] c[5,2,-3.0] c[5,2,-2.0]
 c[5,2,-1.41504] c[5,2,-1.0] c[5,3,0.0] c[5,3,-3.0] c[5,3,-2.0]
 c[5,3,-1.41504] c[5,3,-1.0] c[5,4,0.0] c[5,4,-3.0] c[5,4,-2.0]
 c[5,4,-1.41504] c[5,4,-1.0] c[5,5,0.0] c[5,5,-3.0] c[5,5,-2.0]
 c[5,5,-1.41504] c[5,5,-1.0] c[5,6,0.0] c[5,6,-3.0] c[5,6,-2.0]
 c[5,6,-1.41504] c[5,6,-1.0] c[5,7,0.0] c[5,7,-3.0] c[5,7,-2.0]
 c[5,7,-1.41504] c[5,7,-1.0] c[5,8,0.0] c[5,8,-3.0] c[5,8,-2.0]
 c[5,8,-1.41504] c[5,8,-1.0] c[5,9,0.0] c[5,9,-3.0] c[5,9,-2.0]
 c[5,9,-1.41504] c[5,9,-1.0] c[5,10,0.0] c[5,10,-3.0] c[5,10,-2.0]
 c[5,10,-1.41504] c[5,10,-1.0] c[5,11,0.0] c[5,11,-3.0] c[5,11,-2.0]
 c[5,11,-1.41504] c[5,11,-1.0] c[5,12,0.0] c[5,12,-3.0] c[5,12,-2.0]
 c[5,12,-1.41504] c[5,12,-1.0] c[5,13,0.0] c[5,13,-3.0] c[5,13,-2.0]
 c[5,13,-1.41504] c[5,13,-1.0] c[5,14,0.0] c[5,14,-3.0] c[5,14,-2.0]
 c[5,14,-1.41504] c[5,14,-1.0] c[5,15,0.0] c[5,15,-3.0] c[5,15,-2.0]
 c[5,15,-1.41504] c[5,15,-1.0] c[6,0,0.0] c[6,0,-3.0] c[6,0,-2.0]
 c[6,0,-1.41504] c[6,0,-1.0] c[6,1,0.0] c[6,1,-3.0] c[6,1,-2.0]
 c[6,1,-1.41504] c[6,1,-1.0] c[6,2,0.0] c[6,2,-3.0] c[6,2,-2.0]
 c[6,2,-1.41504] c[6,2,-1.0] c[6,3,0.0] c[6,3,-3.0] c[6,3,-2.0]
 c[6,3,-1.41504] c[6,3,-1.0] c[6,4,0.0] c[6,4,-3.0] c[6,4,-2.0]
 c[6,4,-1.41504] c[6,4,-1.0] c[6,5,0.0] c[6,5,-3.0] c[6,5,-2.0]
 c[6,5,-1.41504] c[6,5,-1.0] c[6,6,0.0] c[6,6,-3.0] c[6,6,-2.0]
 c[6,6,-1.41504] c[6,6,-1.0] c[6,7,0.0] c[6,7,-3.0] c[6,7,-2.0]
 c[6,7,-1.41504] c[6,7,-1.0] c[6,8,0.0] c[6,8,-3.0] c[6,8,-2.0]
 c[6,8,-1.41504] c[6,8,-1.0] c[6,9,0.0] c[6,9,-3.0] c[6,9,-2.0]
 c[6,9,-1.41504] c[6,9,-1.0] c[6,10,0.0] c[6,10,-3.0] c[6,10,-2.0]
 c[6,10,-1.41504] c[6,10,-1.0] c[6,11,0.0] c[6,11,-3.0] c[6,11,-2.0]
 c[6,11,-1.41504] c[6,11,-1.0] c[6,12,0.0] c[6,12,-3.0] c[6,12,-2.0]
 c[6,12,-1.41504] c[6,12,-1.0] c[6,13,0.0] c[6,13,-3.0] c[6,13,-2.0]
 c[6,13,-1.41504] c[6,13,-1.0] c[6,14,0.0] c[6,14,-3.0] c[6,14,-2.0]
 c[6,14,-1.41504] c[6,14,-1.0] c[6,15,0.0] c[6,15,-3.0] c[6,15,-2.0]
 c[6,15,-1.41504] c[6,15,-1.0] c[7,0,0.0] c[7,0,-3.0] c[7,0,-2.0]
 c[7,0,-1.41504] c[7,0,-1.0] c[7,1,0.0] c[7,1,-3.0] c[7,1,-2.0]
 c[7,1,-1.41504] c[7,1,-1.0] c[7,2,0.0] c[7,2,-3.0] c[7,2,-2.0]
 c[7,2,-1.41504] c[7,2,-1.0] c[7,3,0.0] c[7,3,-3.0] c[7,3,-2.0]
 c[7,3,-1.41504] c[7,3,-1.0] c[7,4,0.0] c[7,4,-3.0] c[7,4,-2.0]
 c[7,4,-1.41504] c[7,4,-1.0] c[7,5,0.0] c[7,5,-3.0] c[7,5,-2.0]
 c[7,5,-1.41504] c[7,5,-1.0] c[7,6,0.0] c[7,6,-3.0] c[7,6,-2.0]
 c[7,6,-1.41504] c[7,6,-1.0] c[7,7,0.0] c[7,7,-3.0] c[7,7,-2.0]
 c[7,7,-1.41504] c[7,7,-1.0] c[7,8,0.0] c[7,8,-3.0] c[7,8,-2.0]
 c[7,8,-1.41504] c[7,8,-1.0] c[7,9,0.0] c[7,9,-3.0] c[7,9,-2.0]
 c[7,9,-1.41504] c[7,9,-1.0] c[7,10,0.0] c[7,10,-3.0] c[7,10,-2.0]
 c[7,10,-1.41504] c[7,10,-1.0] c[7,11,0.0] c[7,11,-3.0] c[7,11,-2.0]
 c[7,11,-1.41504] c[7,11,-1.0] c[7,12,0.0] c[7,12,-3.0] c[7,12,-2.0]
 c[7,12,-1.41504] c[7,12,-1.0] c[7,13,0.0] c[7,13,-3.0] c[7,13,-2.0]
 c[7,13,-1.41504] c[7,13,-1.0] c[7,14,0.0] c[7,14,-3.0] c[7,14,-2.0]
 c[7,14,-1.41504] c[7,14,-1.0] c[7,15,0.0] c[7,15,-3.0] c[7,15,-2.0]
 c[7,15,-1.41504] c[7,15,-1.0] c[8,0,0.0] c[8,0,-3.0] c[8,0,-2.0]
 c[8,0,-1.41504] c[8,0,-1.0] c[8,1,0.0] c[8,1,-3.0] c[8,1,-2.0]
 c[8,1,-1.41504] c[8,1,-1.0] c[8,2,0.0] c[8,2,-3.0] c[8,2,-2.0]
 c[8,2,-1.41504] c[8,2,-1.0] c[8,3,0.0] c[8,3,-3.0] c[8,3,-2.0]
 c[8,3,-1.41504] c[8,3,-1.0] c[8,4,0.0] c[8,4,-3.0] c[8,4,-2.0]
 c[8,4,-1.41504] c[8,4,-1.0] c[8,5,0.0] c[8,5,-3.0] c[8,5,-2.0]
 c[8,5,-1.41504] c[8,5,-1.0] c[8,6,0.0] c[8,6,-3.0] c[8,6,-2.0]
 c[8,6,-1.41504] c[8,6,-1.0] c[8,7,0.0] c[8,7,-3.0] c[8,7,-2.0]
 c[8,7,-1.41504] c[8,7,-1.0] c[8,8,0.0] c[8,8,-3.0] c[8,8,-2.0]
 c[8,8,-1.41504] c[8,8,-1.0] c[8,9,0.0] c[8,9,-3.0] c[8,9,-2.0]
 c[8,9,-1.41504] c[8,9,-1.0] c[8,10,0.0] c[8,10,-3.0] c[8,10,-2.0]
 c[8,10,-1.41504] c[8,10,-1.0] c[8,11,0.0] c[8,11,-3.0] c[8,11,-2.0]
 c[8,11,-1.41504] c[8,11,-1.0] c[8,12,0.0] c[8,12,-3.0] c[8,12,-2.0]
 c[8,12,-1.41504] c[8,12,-1.0] c[8,13,0.0] c[8,13,-3.0] c[8,13,-2.0]
 c[8,13,-1.41504] c[8,13,-1.0] c[8,14,0.0] c[8,14,-3.0] c[8,14,-2.0]
 c[8,14,-1.41504] c[8,14,-1.0] c[8,15,0.0] c[8,15,-3.0] c[8,15,-2.0]
 c[8,15,-1.41504] c[8,15,-1.0] c[9,0,0.0] c[9,0,-3.0] c[9,0,-2.0]
 c[9,0,-1.41504] c[9,0,-1.0] c[9,1,0.0] c[9,1,-3.0] c[9,1,-2.0]
 c[9,1,-1.41504] c[9,1,-1.0] c[9,2,0.0] c[9,2,-3.0] c[9,2,-2.0]
 c[9,2,-1.41504] c[9,2,-1.0] c[9,3,0.0] c[9,3,-3.0] c[9,3,-2.0]
 c[9,3,-1.41504] c[9,3,-1.0] c[9,4,0.0] c[9,4,-3.0] c[9,4,-2.0]
 c[9,4,-1.41504] c[9,4,-1.0] c[9,5,0.0] c[9,5,-3.0] c[9,5,-2.0]
 c[9,5,-1.41504] c[9,5,-1.0] c[9,6,0.0] c[9,6,-3.0] c[9,6,-2.0]
 c[9,6,-1.41504] c[9,6,-1.0] c[9,7,0.0] c[9,7,-3.0] c[9,7,-2.0]
 c[9,7,-1.41504] c[9,7,-1.0] c[9,8,0.0] c[9,8,-3.0] c[9,8,-2.0]
 c[9,8,-1.41504] c[9,8,-1.0] c[9,9,0.0] c[9,9,-3.0] c[9,9,-2.0]
 c[9,9,-1.41504] c[9,9,-1.0] c[9,10,0.0] c[9,10,-3.0] c[9,10,-2.0]
 c[9,10,-1.41504] c[9,10,-1.0] c[9,11,0.0] c[9,11,-3.0] c[9,11,-2.0]
 c[9,11,-1.41504] c[9,11,-1.0] c[9,12,0.0] c[9,12,-3.0] c[9,12,-2.0]
 c[9,12,-1.41504] c[9,12,-1.0] c[9,13,0.0] c[9,13,-3.0] c[9,13,-2.0]
 c[9,13,-1.41504] c[9,13,-1.0] c[9,14,0.0] c[9,14,-3.0] c[9,14,-2.0]
 c[9,14,-1.41504] c[9,14,-1.0] c[9,15,0.0] c[9,15,-3.0] c[9,15,-2.0]
 c[9,15,-1.41504] c[9,15,-1.0] c[10,0,0.0] c[10,0,-3.0] c[10,0,-2.0]
 c[10,0,-1.41504] c[10,0,-1.0] c[10,1,0.0] c[10,1,-3.0] c[10,1,-2.0]
 c[10,1,-1.41504] c[10,1,-1.0] c[10,2,0.0] c[10,2,-3.0] c[10,2,-2.0]
 c[10,2,-1.41504] c[10,2,-1.0] c[10,3,0.0] c[10,3,-3.0] c[10,3,-2.0]
 c[10,3,-1.41504] c[10,3,-1.0] c[10,4,0.0] c[10,4,-3.0] c[10,4,-2.0]
 c[10,4,-1.41504] c[10,4,-1.0] c[10,5,0.0] c[10,5,-3.0] c[10,5,-2.0]
 c[10,5,-1.41504] c[10,5,-1.0] c[10,6,0.0] c[10,6,-3.0] c[10,6,-2.0]
 c[10,6,-1.41504] c[10,6,-1.0] c[10,7,0.0] c[10,7,-3.0] c[10,7,-2.0]
 c[10,7,-1.41504] c[10,7,-1.0] c[10,8,0.0] c[10,8,-3.0] c[10,8,-2.0]
 c[10,8,-1.41504] c[10,8,-1.0] c[10,9,0.0] c[10,9,-3.0] c[10,9,-2.0]
 c[10,9,-1.41504] c[10,9,-1.0] c[10,10,0.0] c[10,10,-3.0] c[10,10,-2.0]
 c[10,10,-1.41504] c[10,10,-1.0] c[10,11,0.0] c[10,11,-3.0] c[10,11,-2.0]
 c[10,11,-1.41504] c[10,11,-1.0] c[10,12,0.0] c[10,12,-3.0] c[10,12,-2.0]
 c[10,12,-1.41504] c[10,12,-1.0] c[10,13,0.0] c[10,13,-3.0] c[10,13,-2.0]
 c[10,13,-1.41504] c[10,13,-1.0] c[10,14,0.0] c[10,14,-3.0] c[10,14,-2.0]
 c[10,14,-1.41504] c[10,14,-1.0] c[10,15,0.0] c[10,15,-3.0] c[10,15,-2.0]
 c[10,15,-1.41504] c[10,15,-1.0] c[11,0,0.0] c[11,0,-3.0] c[11,0,-2.0]
 c[11,0,-1.41504] c[11,0,-1.0] c[11,1,0.0] c[11,1,-3.0] c[11,1,-2.0]
 c[11,1,-1.41504] c[11,1,-1.0] c[11,2,0.0] c[11,2,-3.0] c[11,2,-2.0]
 c[11,2,-1.41504] c[11,2,-1.0] c[11,3,0.0] c[11,3,-3.0] c[11,3,-2.0]
 c[11,3,-1.41504] c[11,3,-1.0] c[11,4,0.0] c[11,4,-3.0] c[11,4,-2.0]
 c[11,4,-1.41504] c[11,4,-1.0] c[11,5,0.0] c[11,5,-3.0] c[11,5,-2.0]
 c[11,5,-1.41504] c[11,5,-1.0] c[11,6,0.0] c[11,6,-3.0] c[11,6,-2.0]
 c[11,6,-1.41504] c[11,6,-1.0] c[11,7,0.0] c[11,7,-3.0] c[11,7,-2.0]
 c[11,7,-1.41504] c[11,7,-1.0] c[11,8,0.0] c[11,8,-3.0] c[11,8,-2.0]
 c[11,8,-1.41504] c[11,8,-1.0] c[11,9,0.0] c[11,9,-3.0] c[11,9,-2.0]
 c[11,9,-1.41504] c[11,9,-1.0] c[11,10,0.0] c[11,10,-3.0] c[11,10,-2.0]
 c[11,10,-1.41504] c[11,10,-1.0] c[11,11,0.0] c[11,11,-3.0] c[11,11,-2.0]
 c[11,11,-1.41504] c[11,11,-1.0] c[11,12,0.0] c[11,12,-3.0] c[11,12,-2.0]
 c[11,12,-1.41504] c[11,12,-1.0] c[11,13,0.0] c[11,13,-3.0] c[11,13,-2.0]
 c[11,13,-1.41504] c[11,13,-1.0] c[11,14,0.0] c[11,14,-3.0] c[11,14,-2.0]
 c[11,14,-1.41504] c[11,14,-1.0] c[11,15,0.0] c[11,15,-3.0] c[11,15,-2.0]
 c[11,15,-1.41504] c[11,15,-1.0] c[12,0,0.0] c[12,0,-3.0] c[12,0,-2.0]
 c[12,0,-1.41504] c[12,0,-1.0] c[12,1,0.0] c[12,1,-3.0] c[12,1,-2.0]
 c[12,1,-1.41504] c[12,1,-1.0] c[12,2,0.0] c[12,2,-3.0] c[12,2,-2.0]
 c[12,2,-1.41504] c[12,2,-1.0] c[12,3,0.0] c[12,3,-3.0] c[12,3,-2.0]
 c[12,3,-1.41504] c[12,3,-1.0] c[12,4,0.0] c[12,4,-3.0] c[12,4,-2.0]
 c[12,4,-1.41504] c[12,4,-1.0] c[12,5,0.0] c[12,5,-3.0] c[12,5,-2.0]
 c[12,5,-1.41504] c[12,5,-1.0] c[12,6,0.0] c[12,6,-3.0] c[12,6,-2.0]
 c[12,6,-1.41504] c[12,6,-1.0] c[12,7,0.0] c[12,7,-3.0] c[12,7,-2.0]
 c[12,7,-1.41504] c[12,7,-1.0] c[12,8,0.0] c[12,8,-3.0] c[12,8,-2.0]
 c[12,8,-1.41504] c[12,8,-1.0] c[12,9,0.0] c[12,9,-3.0] c[12,9,-2.0]
 c[12,9,-1.41504] c[12,9,-1.0] c[12,10,0.0] c[12,10,-3.0] c[12,10,-2.0]
 c[12,10,-1.41504] c[12,10,-1.0] c[12,11,0.0] c[12,11,-3.0] c[12,11,-2.0]
 c[12,11,-1.41504] c[12,11,-1.0] c[12,12,0.0] c[12,12,-3.0] c[12,12,-2.0]
 c[12,12,-1.41504] c[12,12,-1.0] c[12,13,0.0] c[12,13,-3.0] c[12,13,-2.0]
 c[12,13,-1.41504] c[12,13,-1.0] c[12,14,0.0] c[12,14,-3.0] c[12,14,-2.0]
 c[12,14,-1.41504] c[12,14,-1.0] c[12,15,0.0] c[12,15,-3.0] c[12,15,-2.0]
 c[12,15,-1.41504] c[12,15,-1.0] c[13,0,0.0] c[13,0,-3.0] c[13,0,-2.0]
 c[13,0,-1.41504] c[13,0,-1.0] c[13,1,0.0] c[13,1,-3.0] c[13,1,-2.0]
 c[13,1,-1.41504] c[13,1,-1.0] c[13,2,0.0] c[13,2,-3.0] c[13,2,-2.0]
 c[13,2,-1.41504] c[13,2,-1.0] c[13,3,0.0] c[13,3,-3.0] c[13,3,-2.0]
 c[13,3,-1.41504] c[13,3,-1.0] c[13,4,0.0] c[13,4,-3.0] c[13,4,-2.0]
 c[13,4,-1.41504] c[13,4,-1.0] c[13,5,0.0] c[13,5,-3.0] c[13,5,-2.0]
 c[13,5,-1.41504] c[13,5,-1.0] c[13,6,0.0] c[13,6,-3.0] c[13,6,-2.0]
 c[13,6,-1.41504] c[13,6,-1.0] c[13,7,0.0] c[13,7,-3.0] c[13,7,-2.0]
 c[13,7,-1.41504] c[13,7,-1.0] c[13,8,0.0] c[13,8,-3.0] c[13,8,-2.0]
 c[13,8,-1.41504] c[13,8,-1.0] c[13,9,0.0] c[13,9,-3.0] c[13,9,-2.0]
 c[13,9,-1.41504] c[13,9,-1.0] c[13,10,0.0] c[13,10,-3.0] c[13,10,-2.0]
 c[13,10,-1.41504] c[13,10,-1.0] c[13,11,0.0] c[13,11,-3.0] c[13,11,-2.0]
 c[13,11,-1.41504] c[13,11,-1.0] c[13,12,0.0] c[13,12,-3.0] c[13,12,-2.0]
 c[13,12,-1.41504] c[13,12,-1.0] c[13,13,0.0] c[13,13,-3.0] c[13,13,-2.0]
 c[13,13,-1.41504] c[13,13,-1.0] c[13,14,0.0] c[13,14,-3.0] c[13,14,-2.0]
 c[13,14,-1.41504] c[13,14,-1.0] c[13,15,0.0] c[13,15,-3.0] c[13,15,-2.0]
 c[13,15,-1.41504] c[13,15,-1.0] c[14,0,0.0] c[14,0,-3.0] c[14,0,-2.0]
 c[14,0,-1.41504] c[14,0,-1.0] c[14,1,0.0] c[14,1,-3.0] c[14,1,-2.0]
 c[14,1,-1.41504] c[14,1,-1.0] c[14,2,0.0] c[14,2,-3.0] c[14,2,-2.0]
 c[14,2,-1.41504] c[14,2,-1.0] c[14,3,0.0] c[14,3,-3.0] c[14,3,-2.0]
 c[14,3,-1.41504] c[14,3,-1.0] c[14,4,0.0] c[14,4,-3.0] c[14,4,-2.0]
 c[14,4,-1.41504] c[14,4,-1.0] c[14,5,0.0] c[14,5,-3.0] c[14,5,-2.0]
 c[14,5,-1.41504] c[14,5,-1.0] c[14,6,0.0] c[14,6,-3.0] c[14,6,-2.0]
 c[14,6,-1.41504] c[14,6,-1.0] c[14,7,0.0] c[14,7,-3.0] c[14,7,-2.0]
 c[14,7,-1.41504] c[14,7,-1.0] c[14,8,0.0] c[14,8,-3.0] c[14,8,-2.0]
 c[14,8,-1.41504] c[14,8,-1.0] c[14,9,0.0] c[14,9,-3.0] c[14,9,-2.0]
 c[14,9,-1.41504] c[14,9,-1.0] c[14,10,0.0] c[14,10,-3.0] c[14,10,-2.0]
 c[14,10,-1.41504] c[14,10,-1.0] c[14,11,0.0] c[14,11,-3.0] c[14,11,-2.0]
 c[14,11,-1.41504] c[14,11,-1.0] c[14,12,0.0] c[14,12,-3.0] c[14,12,-2.0]
 c[14,12,-1.41504] c[14,12,-1.0] c[14,13,0.0] c[14,13,-3.0] c[14,13,-2.0]
 c[14,13,-1.41504] c[14,13,-1.0] c[14,14,0.0] c[14,14,-3.0] c[14,14,-2.0]
 c[14,14,-1.41504] c[14,14,-1.0] c[14,15,0.0] c[14,15,-3.0] c[14,15,-2.0]
 c[14,15,-1.41504] c[14,15,-1.0] c[15,0,0.0] c[15,0,-3.0] c[15,0,-2.0]
 c[15,0,-1.41504] c[15,0,-1.0] c[15,1,0.0] c[15,1,-3.0] c[15,1,-2.0]
 c[15,1,-1.41504] c[15,1,-1.0] c[15,2,0.0] c[15,2,-3.0] c[15,2,-2.0]
 c[15,2,-1.41504] c[15,2,-1.0] c[15,3,0.0] c[15,3,-3.0] c[15,3,-2.0]
 c[15,3,-1.41504] c[15,3,-1.0] c[15,4,0.0] c[15,4,-3.0] c[15,4,-2.0]
 c[15,4,-1.41504] c[15,4,-1.0] c[15,5,0.0] c[15,5,-3.0] c[15,5,-2.0]
 c[15,5,-1.41504] c[15,5,-1.0] c[15,6,0.0] c[15,6,-3.0] c[15,6,-2.0]
 c[15,6,-1.41504] c[15,6,-1.0] c[15,7,0.0] c[15,7,-3.0] c[15,7,-2.0]
 c[15,7,-1.41504] c[15,7,-1.0] c[15,8,0.0] c[15,8,-3.0] c[15,8,-2.0]
 c[15,8,-1.41504] c[15,8,-1.0] c[15,9,0.0] c[15,9,-3.0] c[15,9,-2.0]
 c[15,9,-1.41504] c[15,9,-1.0] c[15,10,0.0] c[15,10,-3.0] c[15,10,-2.0]
 c[15,10,-1.41504] c[15,10,-1.0] c[15,11,0.0] c[15,11,-3.0] c[15,11,-2.0]
 c[15,11,-1.41504] c[15,11,-1.0] c[15,12,0.0] c[15,12,-3.0] c[15,12,-2.0]
 c[15,12,-1.41504] c[15,12,-1.0] c[15,13,0.0] c[15,13,-3.0] c[15,13,-2.0]
 c[15,13,-1.41504] c[15,13,-1.0] c[15,14,0.0] c[15,14,-3.0] c[15,14,-2.0]
 c[15,14,-1.41504] c[15,14,-1.0] c[15,15,0.0] c[15,15,-3.0] c[15,15,-2.0]
 c[15,15,-1.41504] c[15,15,-1.0] c[16,0,0.0] c[16,0,-3.0] c[16,0,-2.0]
 c[16,0,-1.41504] c[16,0,-1.0] c[16,1,0.0] c[16,1,-3.0] c[16,1,-2.0]
 c[16,1,-1.41504] c[16,1,-1.0] c[16,2,0.0] c[16,2,-3.0] c[16,2,-2.0]
 c[16,2,-1.41504] c[16,2,-1.0] c[16,3,0.0] c[16,3,-3.0] c[16,3,-2.0]
 c[16,3,-1.41504] c[16,3,-1.0] c[16,4,0.0] c[16,4,-3.0] c[16,4,-2.0]
 c[16,4,-1.41504] c[16,4,-1.0] c[16,5,0.0] c[16,5,-3.0] c[16,5,-2.0]
 c[16,5,-1.41504] c[16,5,-1.0] c[16,6,0.0] c[16,6,-3.0] c[16,6,-2.0]
 c[16,6,-1.41504] c[16,6,-1.0] c[16,7,0.0] c[16,7,-3.0] c[16,7,-2.0]
 c[16,7,-1.41504] c[16,7,-1.0] c[16,8,0.0] c[16,8,-3.0] c[16,8,-2.0]
 c[16,8,-1.41504] c[16,8,-1.0] c[16,9,0.0] c[16,9,-3.0] c[16,9,-2.0]
 c[16,9,-1.41504] c[16,9,-1.0] c[16,10,0.0] c[16,10,-3.0] c[16,10,-2.0]
 c[16,10,-1.41504] c[16,10,-1.0] c[16,11,0.0] c[16,11,-3.0] c[16,11,-2.0]
 c[16,11,-1.41504] c[16,11,-1.0] c[16,12,0.0] c[16,12,-3.0] c[16,12,-2.0]
 c[16,12,-1.41504] c[16,12,-1.0] c[16,13,0.0] c[16,13,-3.0] c[16,13,-2.0]
 c[16,13,-1.41504] c[16,13,-1.0] c[16,14,0.0] c[16,14,-3.0] c[16,14,-2.0]
 c[16,14,-1.41504] c[16,14,-1.0] c[16,15,0.0] c[16,15,-3.0] c[16,15,-2.0]
 c[16,15,-1.41504] c[16,15,-1.0] c[17,0,0.0] c[17,0,-3.0] c[17,0,-2.0]
 c[17,0,-1.41504] c[17,0,-1.0] c[17,1,0.0] c[17,1,-3.0] c[17,1,-2.0]
 c[17,1,-1.41504] c[17,1,-1.0] c[17,2,0.0] c[17,2,-3.0] c[17,2,-2.0]
 c[17,2,-1.41504] c[17,2,-1.0] c[17,3,0.0] c[17,3,-3.0] c[17,3,-2.0]
 c[17,3,-1.41504] c[17,3,-1.0] c[17,4,0.0] c[17,4,-3.0] c[17,4,-2.0]
 c[17,4,-1.41504] c[17,4,-1.0] c[17,5,0.0] c[17,5,-3.0] c[17,5,-2.0]
 c[17,5,-1.41504] c[17,5,-1.0] c[17,6,0.0] c[17,6,-3.0] c[17,6,-2.0]
 c[17,6,-1.41504] c[17,6,-1.0] c[17,7,0.0] c[17,7,-3.0] c[17,7,-2.0]
 c[17,7,-1.41504] c[17,7,-1.0] c[17,8,0.0] c[17,8,-3.0] c[17,8,-2.0]
 c[17,8,-1.41504] c[17,8,-1.0] c[17,9,0.0] c[17,9,-3.0] c[17,9,-2.0]
 c[17,9,-1.41504] c[17,9,-1.0] c[17,10,0.0] c[17,10,-3.0] c[17,10,-2.0]
 c[17,10,-1.41504] c[17,10,-1.0] c[17,11,0.0] c[17,11,-3.0] c[17,11,-2.0]
 c[17,11,-1.41504] c[17,11,-1.0] c[17,12,0.0] c[17,12,-3.0] c[17,12,-2.0]
 c[17,12,-1.41504] c[17,12,-1.0] c[17,13,0.0] c[17,13,-3.0] c[17,13,-2.0]
 c[17,13,-1.41504] c[17,13,-1.0] c[17,14,0.0] c[17,14,-3.0] c[17,14,-2.0]
 c[17,14,-1.41504] c[17,14,-1.0] c[17,15,0.0] c[17,15,-3.0] c[17,15,-2.0]
 c[17,15,-1.41504] c[17,15,-1.0]
End
